
     Program PWSCF v.7.1 starts on  7Aug2026 at 16:47: 7 

     This program is part of the open-source Quantum ESPRESSO suite
     for quantum simulation of materials; please cite
         "P. Giannozzi et al., J. Phys.:Condens. Matter 21 395502 (2009);
         "P. Giannozzi et al., J. Phys.:Condens. Matter 29 465901 (2017);
         "P. Giannozzi et al., J. Chem. Phys. 152 154105 (2020);
          URL http://www.quantum-espresso.org", 
     in publications or presentations arising from this work. More details at
     http://www.quantum-espresso.org/quote

     Parallel version (MPI & OpenMP), running on      10 processor cores
     Number of MPI processes:                 1
     Threads/MPI process:                    10

     MPI processes distributed on     1 nodes
     0 MiB available memory on the printing compute node when the environment starts

     Waiting for input...
     Reading input from standard input

     Current dimensions of program PWSCF are:
     Max number of different atomic species (ntypx) = 10
     Max number of k-points (npk) =  40000
     Max angular momentum in pseudopotentials (lmaxx) =  4
     file O.paw.pbe.z_6.ld1.psl.v0.1.upf: wavefunction(s)  2P renormalized

     gamma-point specific algorithms are used
     Message from routine setup:
     using ibrav=0 with symmetry is DISCOURAGED, use correct ibrav instead

     Subspace diagonalization in iterative solution of the eigenvalue problem:
     a serial algorithm will be used


     G-vector sticks info
     --------------------
     sticks:   dense  smooth     PW     G-vecs:    dense   smooth      PW
     Sum       30669   15329   3833              4044289  1429635  178925

     Using Slab Decomposition



     bravais-lattice index     =            0
     lattice parameter (alat)  =      28.3459  a.u.
     unit-cell volume          =   22775.6289 (a.u.)^3
     number of atoms/cell      =            2
     number of atomic types    =            2
     number of electrons       =        10.00
     number of Kohn-Sham states=            5
     kinetic-energy cutoff     =      60.0000  Ry
     charge density cutoff     =     480.0000  Ry
     scf convergence threshold =      1.0E-08
     mixing beta               =       0.3000
     number of iterations used =            8  plain     mixing
     energy convergence thresh.=      1.0E-04
     force convergence thresh. =      1.0E-04
     Exchange-correlation= SLA  PW   PBX  PBC
                           (   1   4   3   4   0   0   0)
     nstep                     =           50

     Assuming isolated system, Martyna-Tuckerman method


     celldm(1)=  28.345892  celldm(2)=   0.000000  celldm(3)=   0.000000
     celldm(4)=   0.000000  celldm(5)=   0.000000  celldm(6)=   0.000000

     crystal axes: (cart. coord. in units of alat)
               a(1) = (   1.000000   0.000000   0.000000 )  
               a(2) = (   0.000000   1.000000   0.000000 )  
               a(3) = (   0.000000   0.000000   1.000000 )  

     reciprocal axes: (cart. coord. in units 2 pi/alat)
               b(1) = (  1.000000  0.000000  0.000000 )  
               b(2) = (  0.000000  1.000000  0.000000 )  
               b(3) = (  0.000000  0.000000  1.000000 )  


     PseudoPot. # 1 for C  read from file:
     ./pseudo/C.us.pbe.z_4.uspp.gbrv.v1.2.upf
     MD5 check sum: 9630a62af89b2189feb759fc7f027601
     Pseudo is Ultrasoft + core correction, Zval =  4.0
     
     Using radial grid of  721 points,  4 beta functions with: 
                l(1) =   0
                l(2) =   0
                l(3) =   1
                l(4) =   1
     Q(r) pseudized with 0 coefficients 


     PseudoPot. # 2 for O  read from file:
     ./pseudo/O.paw.pbe.z_6.ld1.psl.v0.1.upf
     MD5 check sum: a60b4d0ae3a5477449b52f76b61da220
     Pseudo is Projector augmented-wave + core cor, Zval =  6.0
     Generated using &quot;atomic&quot; code by A. Dal Corso  v.6.3MaX
     Shape of augmentation charge: BESSEL
     Using radial grid of 1095 points,  4 beta functions with: 
                l(1) =   0
                l(2) =   0
                l(3) =   1
                l(4) =   1
     Q(r) pseudized with 0 coefficients 


     atomic species   valence    mass     pseudopotential
        C              4.00    12.01070     C ( 1.00)
        O              6.00    15.99940     O ( 1.00)

      8 Sym. Ops. (no inversion) found



   Cartesian axes

     site n.     atom                  positions (alat units)
         1           C   tau(   1) = (   0.5000000   0.5000000   0.4957333  )
         2           O   tau(   2) = (   0.5000000   0.5000000   0.5709333  )

     number of k points=     1
                       cart. coord. in units 2pi/alat
        k(    1) = (   0.0000000   0.0000000   0.0000000), wk =   2.0000000

     Dense  grid:  2022145 G-vectors     FFT dimensions: ( 200, 200, 200)

     Smooth grid:   714818 G-vectors     FFT dimensions: ( 144, 144, 144)

     Estimated max dynamical RAM per process >       2.78 GB

     Initial potential from superposition of free atoms

     starting charge      10.0000, renormalised to      10.0000

     negative rho (up, down):  9.081E-04 0.000E+00
     Starting wfcs are    8 randomized atomic wfcs
     Checking if some PAW data can be deallocated... 

     total cpu time spent up to now is       26.5 secs

     Self-consistent Calculation

     iteration #  1     ecut=    60.00 Ry     beta= 0.30
     Davidson diagonalization with overlap
     ethr =  1.00E-02,  avg # of iterations =  2.0

     negative rho (up, down):  1.169E-03 0.000E+00

     total cpu time spent up to now is       42.1 secs

     total energy              =     -53.03542040 Ry
     estimated scf accuracy    <       0.21075805 Ry

     iteration #  2     ecut=    60.00 Ry     beta= 0.30
     Davidson diagonalization with overlap
     ethr =  2.11E-03,  avg # of iterations =  2.0

     negative rho (up, down):  1.315E-03 0.000E+00

     total cpu time spent up to now is       59.5 secs

     total energy              =     -53.06028906 Ry
     estimated scf accuracy    <       0.04136476 Ry

     iteration #  3     ecut=    60.00 Ry     beta= 0.30
     Davidson diagonalization with overlap
     ethr =  4.14E-04,  avg # of iterations =  2.0

     negative rho (up, down):  1.661E-03 0.000E+00

     total cpu time spent up to now is       80.9 secs

     total energy              =     -53.05525716 Ry
     estimated scf accuracy    <       0.01700405 Ry

     iteration #  4     ecut=    60.00 Ry     beta= 0.30
     Davidson diagonalization with overlap
     ethr =  1.70E-04,  avg # of iterations =  3.0

     negative rho (up, down):  1.640E-03 0.000E+00

     total cpu time spent up to now is       98.4 secs

     total energy              =     -53.05901995 Ry
     estimated scf accuracy    <       0.00624467 Ry

     iteration #  5     ecut=    60.00 Ry     beta= 0.30
     Davidson diagonalization with overlap
     ethr =  6.24E-05,  avg # of iterations =  1.0

     negative rho (up, down):  1.697E-03 0.000E+00

     total cpu time spent up to now is      118.9 secs

     total energy              =     -53.05628431 Ry
     estimated scf accuracy    <       0.00355459 Ry

     iteration #  6     ecut=    60.00 Ry     beta= 0.30
     Davidson diagonalization with overlap
     ethr =  3.55E-05,  avg # of iterations =  5.0

     negative rho (up, down):  1.708E-03 0.000E+00

     total cpu time spent up to now is      139.4 secs

     total energy              =     -53.05309632 Ry
     estimated scf accuracy    <       0.03408139 Ry

     iteration #  7     ecut=    60.00 Ry     beta= 0.30
     Davidson diagonalization with overlap
     ethr =  3.55E-05,  avg # of iterations =  4.0

     negative rho (up, down):  1.723E-03 0.000E+00

     total cpu time spent up to now is      159.6 secs

     total energy              =     -53.05852835 Ry
     estimated scf accuracy    <       0.00003497 Ry

     iteration #  8     ecut=    60.00 Ry     beta= 0.30
     Davidson diagonalization with overlap
     ethr =  3.50E-07,  avg # of iterations =  4.0

     negative rho (up, down):  1.734E-03 0.000E+00

     total cpu time spent up to now is      180.2 secs

     total energy              =     -53.05855105 Ry
     estimated scf accuracy    <       0.00003875 Ry

     iteration #  9     ecut=    60.00 Ry     beta= 0.30
     Davidson diagonalization with overlap
     ethr =  3.50E-07,  avg # of iterations =  6.0

     negative rho (up, down):  1.745E-03 0.000E+00

     total cpu time spent up to now is      200.5 secs

     total energy              =     -53.05843909 Ry
     estimated scf accuracy    <       0.00056671 Ry

     iteration # 10     ecut=    60.00 Ry     beta= 0.30
     Davidson diagonalization with overlap
     ethr =  3.50E-07,  avg # of iterations =  5.0

     negative rho (up, down):  1.754E-03 0.000E+00

     total cpu time spent up to now is      214.3 secs

     total energy              =     -53.05856851 Ry
     estimated scf accuracy    <       0.00002439 Ry

     iteration # 11     ecut=    60.00 Ry     beta= 0.30
     Davidson diagonalization with overlap
     ethr =  2.44E-07,  avg # of iterations =  1.0

     negative rho (up, down):  1.761E-03 0.000E+00

     total cpu time spent up to now is      226.0 secs

     total energy              =     -53.05856814 Ry
     estimated scf accuracy    <       0.00000760 Ry

     iteration # 12     ecut=    60.00 Ry     beta= 0.30
     Davidson diagonalization with overlap
     ethr =  7.60E-08,  avg # of iterations =  3.0

     negative rho (up, down):  1.765E-03 0.000E+00

     total cpu time spent up to now is      240.1 secs

     total energy              =     -53.05857000 Ry
     estimated scf accuracy    <       0.00000020 Ry

     iteration # 13     ecut=    60.00 Ry     beta= 0.30
     Davidson diagonalization with overlap
     ethr =  2.02E-09,  avg # of iterations =  5.0

     negative rho (up, down):  1.769E-03 0.000E+00

     total cpu time spent up to now is      254.7 secs

     total energy              =     -53.05856908 Ry
     estimated scf accuracy    <       0.00000408 Ry

     iteration # 14     ecut=    60.00 Ry     beta= 0.30
     Davidson diagonalization with overlap
     ethr =  2.02E-09,  avg # of iterations =  5.0

     negative rho (up, down):  1.771E-03 0.000E+00

     total cpu time spent up to now is      271.5 secs

     total energy              =     -53.05856956 Ry
     estimated scf accuracy    <       0.00000014 Ry

     iteration # 15     ecut=    60.00 Ry     beta= 0.30
     Davidson diagonalization with overlap
     ethr =  1.44E-09,  avg # of iterations =  1.0

     negative rho (up, down):  1.773E-03 0.000E+00

     total cpu time spent up to now is      287.9 secs

     total energy              =     -53.05856954 Ry
     estimated scf accuracy    <       0.00000018 Ry

     iteration # 16     ecut=    60.00 Ry     beta= 0.30
     Davidson diagonalization with overlap
     ethr =  1.44E-09,  avg # of iterations =  1.0

     negative rho (up, down):  1.774E-03 0.000E+00

     total cpu time spent up to now is      297.3 secs

     total energy              =     -53.05856949 Ry
     estimated scf accuracy    <       0.00000014 Ry

     iteration # 17     ecut=    60.00 Ry     beta= 0.30
     Davidson diagonalization with overlap
     ethr =  1.43E-09,  avg # of iterations =  2.0

     negative rho (up, down):  1.777E-03 0.000E+00

     total cpu time spent up to now is      307.5 secs

     End of self-consistent calculation

          k = 0.0000 0.0000 0.0000 ( 89463 PWs)   bands (ev):

   -29.4568 -14.1301 -11.8957 -11.8957  -9.0161

     highest occupied level (ev):    -9.0161

!    total energy              =     -53.05856951 Ry
     estimated scf accuracy    <          4.0E-09 Ry

     The total energy is the sum of the following terms:
     one-electron contribution =    -112.96714440 Ry
     hartree contribution      =      57.61248182 Ry
     xc contribution           =     -10.69364884 Ry
     ewald contribution        =      22.51817919 Ry
     one-center paw contrib.   =      -9.52843728 Ry

     convergence has been achieved in  17 iterations

     negative rho (up, down):  1.777E-03 0.000E+00

     Forces acting on atoms (cartesian axes, Ry/au):

     atom    1 type  1   force =     0.00000000    0.00000000   -0.05863359
     atom    2 type  2   force =     0.00000000    0.00000000    0.05863359

     Total force =     0.082920     Total SCF correction =     0.000165

     BFGS Geometry Optimization
     Energy error            =      0.0E+00 Ry
     Gradient error          =      5.9E-02 Ry/Bohr

     number of scf cycles    =   1
     number of bfgs steps    =   0

     energy             new  =     -53.0585695056 Ry

     new trust radius        =       0.0586335884 bohr
     new conv_thr            =       0.0000000100 Ry


ATOMIC_POSITIONS (angstrom)
C             7.5000000000        7.5000000000        7.4049724412
O             7.5000000000        7.5000000000        8.5950275588



     Writing config-only to output data dir ./tmp/co.save/
     NEW-OLD atomic charge density approx. for the potential

     negative rho (up, down):  1.661E-03 0.000E+00

     total cpu time spent up to now is      312.0 secs

     Self-consistent Calculation

     iteration #  1     ecut=    60.00 Ry     beta= 0.30
     Davidson diagonalization with overlap
     ethr =  1.00E-06,  avg # of iterations =  9.0

     negative rho (up, down):  1.645E-03 0.000E+00

     total cpu time spent up to now is      336.9 secs

     total energy              =     -53.04974536 Ry
     estimated scf accuracy    <       0.00674485 Ry

     iteration #  2     ecut=    60.00 Ry     beta= 0.30
     Davidson diagonalization with overlap
     ethr =  6.74E-05,  avg # of iterations =  2.0

     negative rho (up, down):  1.656E-03 0.000E+00

     total cpu time spent up to now is      346.6 secs

     total energy              =     -53.04977567 Ry
     estimated scf accuracy    <       0.00138238 Ry

     iteration #  3     ecut=    60.00 Ry     beta= 0.30
     Davidson diagonalization with overlap
     ethr =  1.38E-05,  avg # of iterations =  2.0

     negative rho (up, down):  1.688E-03 0.000E+00

     total cpu time spent up to now is      357.0 secs

     total energy              =     -53.04989267 Ry
     estimated scf accuracy    <       0.00021366 Ry

     iteration #  4     ecut=    60.00 Ry     beta= 0.30
     Davidson diagonalization with overlap
     ethr =  2.14E-06,  avg # of iterations =  2.0

     negative rho (up, down):  1.712E-03 0.000E+00

     total cpu time spent up to now is      370.5 secs

     total energy              =     -53.04992040 Ry
     estimated scf accuracy    <       0.00001771 Ry

     iteration #  5     ecut=    60.00 Ry     beta= 0.30
     Davidson diagonalization with overlap
     ethr =  1.77E-07,  avg # of iterations =  2.0

     negative rho (up, down):  1.717E-03 0.000E+00

     total cpu time spent up to now is      381.3 secs

     total energy              =     -53.04992094 Ry
     estimated scf accuracy    <       0.00000154 Ry

     iteration #  6     ecut=    60.00 Ry     beta= 0.30
     Davidson diagonalization with overlap
     ethr =  1.54E-08,  avg # of iterations =  2.0

     negative rho (up, down):  1.713E-03 0.000E+00

     total cpu time spent up to now is      394.0 secs

     total energy              =     -53.04992118 Ry
     estimated scf accuracy    <       0.00000016 Ry

     iteration #  7     ecut=    60.00 Ry     beta= 0.30
     Davidson diagonalization with overlap
     ethr =  1.59E-09,  avg # of iterations =  2.0

     negative rho (up, down):  1.714E-03 0.000E+00

     total cpu time spent up to now is      408.1 secs

     total energy              =     -53.04992121 Ry
     estimated scf accuracy    <       0.00000004 Ry

     iteration #  8     ecut=    60.00 Ry     beta= 0.30
     Davidson diagonalization with overlap
     ethr =  3.82E-10,  avg # of iterations =  2.0

     negative rho (up, down):  1.724E-03 0.000E+00

     total cpu time spent up to now is      421.4 secs

     End of self-consistent calculation

          k = 0.0000 0.0000 0.0000 ( 89463 PWs)   bands (ev):

   -28.5659 -14.1649 -11.3719 -11.3719  -9.1558

     highest occupied level (ev):    -9.1558

!    total energy              =     -53.04992125 Ry
     estimated scf accuracy    <          1.5E-09 Ry

     The total energy is the sum of the following terms:
     one-electron contribution =    -110.94432239 Ry
     hartree contribution      =      56.66247398 Ry
     xc contribution           =     -10.57984009 Ry
     ewald contribution        =      21.34397453 Ry
     one-center paw contrib.   =      -9.53220729 Ry

     convergence has been achieved in   8 iterations

     negative rho (up, down):  1.724E-03 0.000E+00

     Forces acting on atoms (cartesian axes, Ry/au):

     atom    1 type  1   force =     0.00000000    0.00000000    0.18691440
     atom    2 type  2   force =     0.00000000    0.00000000   -0.18691440

     Total force =     0.264337     Total SCF correction =     0.000123
     Energy error            =      8.6E-03 Ry
     Gradient error          =      1.9E-01 Ry/Bohr

     number of scf cycles    =   2
     number of bfgs steps    =   1

     energy             old  =     -53.0585695056 Ry
     energy             new  =     -53.0499212512 Ry

     CASE: energy            _new > energy            _old

     new trust radius        =       0.0129847740 bohr
     new conv_thr            =       0.0000000100 Ry


ATOMIC_POSITIONS (angstrom)
C             7.5000000000        7.5000000000        7.4291287535
O             7.5000000000        7.5000000000        8.5708712465



     Writing config-only to output data dir ./tmp/co.save/
     NEW-OLD atomic charge density approx. for the potential

     negative rho (up, down):  1.665E-03 0.000E+00

     total cpu time spent up to now is      427.3 secs

     Self-consistent Calculation

     iteration #  1     ecut=    60.00 Ry     beta= 0.30
     Davidson diagonalization with overlap
     ethr =  1.00E-06,  avg # of iterations =  8.0

     negative rho (up, down):  1.682E-03 0.000E+00

     total cpu time spent up to now is      452.1 secs

     total energy              =     -53.05923770 Ry
     estimated scf accuracy    <       0.00369126 Ry

     iteration #  2     ecut=    60.00 Ry     beta= 0.30
     Davidson diagonalization with overlap
     ethr =  3.69E-05,  avg # of iterations =  1.0

     negative rho (up, down):  1.718E-03 0.000E+00

     total cpu time spent up to now is      471.2 secs

     total energy              =     -53.05904796 Ry
     estimated scf accuracy    <       0.00080693 Ry

     iteration #  3     ecut=    60.00 Ry     beta= 0.30
     Davidson diagonalization with overlap
     ethr =  8.07E-06,  avg # of iterations =  2.0

     negative rho (up, down):  1.723E-03 0.000E+00

     total cpu time spent up to now is      480.7 secs

     total energy              =     -53.05935573 Ry
     estimated scf accuracy    <       0.00029246 Ry

     iteration #  4     ecut=    60.00 Ry     beta= 0.30
     Davidson diagonalization with overlap
     ethr =  2.92E-06,  avg # of iterations =  2.0

     negative rho (up, down):  1.755E-03 0.000E+00

     total cpu time spent up to now is      491.7 secs

     total energy              =     -53.05910277 Ry
     estimated scf accuracy    <       0.00055732 Ry

     iteration #  5     ecut=    60.00 Ry     beta= 0.30
     Davidson diagonalization with overlap
     ethr =  2.92E-06,  avg # of iterations =  3.0

     negative rho (up, down):  1.752E-03 0.000E+00

     total cpu time spent up to now is      505.6 secs

     total energy              =     -53.05924544 Ry
     estimated scf accuracy    <       0.00002464 Ry

     iteration #  6     ecut=    60.00 Ry     beta= 0.30
     Davidson diagonalization with overlap
     ethr =  2.46E-07,  avg # of iterations =  4.0

     negative rho (up, down):  1.754E-03 0.000E+00

     total cpu time spent up to now is      518.5 secs

     total energy              =     -53.05922503 Ry
     estimated scf accuracy    <       0.00006697 Ry

     iteration #  7     ecut=    60.00 Ry     beta= 0.30
     Davidson diagonalization with overlap
     ethr =  2.46E-07,  avg # of iterations =  3.0

     negative rho (up, down):  1.756E-03 0.000E+00

     total cpu time spent up to now is      532.1 secs

     total energy              =     -53.05923751 Ry
     estimated scf accuracy    <       0.00000049 Ry

     iteration #  8     ecut=    60.00 Ry     beta= 0.30
     Davidson diagonalization with overlap
     ethr =  4.90E-09,  avg # of iterations =  6.0

     negative rho (up, down):  1.759E-03 0.000E+00

     total cpu time spent up to now is      549.8 secs

     total energy              =     -53.05923697 Ry
     estimated scf accuracy    <       0.00000690 Ry

     iteration #  9     ecut=    60.00 Ry     beta= 0.30
     Davidson diagonalization with overlap
     ethr =  4.90E-09,  avg # of iterations =  4.0

     negative rho (up, down):  1.761E-03 0.000E+00

     total cpu time spent up to now is      571.9 secs

     total energy              =     -53.05923755 Ry
     estimated scf accuracy    <       0.00000028 Ry

     iteration # 10     ecut=    60.00 Ry     beta= 0.30
     Davidson diagonalization with overlap
     ethr =  2.85E-09,  avg # of iterations =  3.0

     negative rho (up, down):  1.763E-03 0.000E+00

     total cpu time spent up to now is      581.7 secs

     total energy              =     -53.05923763 Ry
     estimated scf accuracy    <       0.00000004 Ry

     iteration # 11     ecut=    60.00 Ry     beta= 0.30
     Davidson diagonalization with overlap
     ethr =  4.00E-10,  avg # of iterations =  1.0

     negative rho (up, down):  1.764E-03 0.000E+00

     total cpu time spent up to now is      588.9 secs

     total energy              =     -53.05923761 Ry
     estimated scf accuracy    <       0.00000002 Ry

     iteration # 12     ecut=    60.00 Ry     beta= 0.30
     Davidson diagonalization with overlap
     ethr =  2.20E-10,  avg # of iterations =  4.0

     negative rho (up, down):  1.765E-03 0.000E+00

     total cpu time spent up to now is      601.1 secs

     total energy              =     -53.05923761 Ry
     estimated scf accuracy    <       0.00000006 Ry

     iteration # 13     ecut=    60.00 Ry     beta= 0.30
     Davidson diagonalization with overlap
     ethr =  2.20E-10,  avg # of iterations =  2.0

     negative rho (up, down):  1.766E-03 0.000E+00

     total cpu time spent up to now is      614.5 secs

     total energy              =     -53.05923760 Ry
     estimated scf accuracy    <       0.00000001 Ry

     iteration # 14     ecut=    60.00 Ry     beta= 0.30
     Davidson diagonalization with overlap
     ethr =  1.05E-10,  avg # of iterations =  2.0

     negative rho (up, down):  1.768E-03 0.000E+00

     total cpu time spent up to now is      625.3 secs

     End of self-consistent calculation

          k = 0.0000 0.0000 0.0000 ( 89463 PWs)   bands (ev):

   -29.2564 -14.1373 -11.7752 -11.7752  -9.0491

     highest occupied level (ev):    -9.0491

!    total energy              =     -53.05923760 Ry
     estimated scf accuracy    <          2.8E-09 Ry

     The total energy is the sum of the following terms:
     one-electron contribution =    -112.50522415 Ry
     hartree contribution      =      57.39529952 Ry
     xc contribution           =     -10.66719826 Ry
     ewald contribution        =      22.24714091 Ry
     one-center paw contrib.   =      -9.52925561 Ry

     convergence has been achieved in  14 iterations

     negative rho (up, down):  1.768E-03 0.000E+00

     Forces acting on atoms (cartesian axes, Ry/au):

     atom    1 type  1   force =     0.00000000    0.00000000    0.00605418
     atom    2 type  2   force =     0.00000000    0.00000000   -0.00605418

     Total force =     0.008562     Total SCF correction =     0.000116
     Energy error            =      6.7E-04 Ry
     Gradient error          =      6.1E-03 Ry/Bohr

     number of scf cycles    =   3
     number of bfgs steps    =   1

     energy             old  =     -53.0585695056 Ry
     energy             new  =     -53.0592375973 Ry

     CASE: energy            _new < energy            _old

     new trust radius        =       0.0012152562 bohr
     new conv_thr            =       0.0000000007 Ry


ATOMIC_POSITIONS (angstrom)
C             7.5000000000        7.5000000000        7.4297718394
O             7.5000000000        7.5000000000        8.5702281606



     Writing config-only to output data dir ./tmp/co.save/
     NEW-OLD atomic charge density approx. for the potential

     negative rho (up, down):  1.767E-03 0.000E+00

     total cpu time spent up to now is      632.1 secs

     Self-consistent Calculation

     iteration #  1     ecut=    60.00 Ry     beta= 0.30
     Davidson diagonalization with overlap
     ethr =  1.00E-06,  avg # of iterations =  2.0

     Threshold (ethr) on eigenvalues was too large:
     Diagonalizing with lowered threshold

     Davidson diagonalization with overlap
     ethr =  2.16E-08,  avg # of iterations =  2.0

     negative rho (up, down):  1.768E-03 0.000E+00

     total cpu time spent up to now is      653.0 secs

     total energy              =     -53.05924543 Ry
     estimated scf accuracy    <       0.00000265 Ry

     iteration #  2     ecut=    60.00 Ry     beta= 0.30
     Davidson diagonalization with overlap
     ethr =  2.65E-08,  avg # of iterations =  1.0

     negative rho (up, down):  1.768E-03 0.000E+00

     total cpu time spent up to now is      663.6 secs

     total energy              =     -53.05924509 Ry
     estimated scf accuracy    <       0.00000078 Ry

     iteration #  3     ecut=    60.00 Ry     beta= 0.30
     Davidson diagonalization with overlap
     ethr =  7.77E-09,  avg # of iterations =  3.0

     negative rho (up, down):  1.768E-03 0.000E+00

     total cpu time spent up to now is      674.2 secs

     total energy              =     -53.05924539 Ry
     estimated scf accuracy    <       0.00000025 Ry

     iteration #  4     ecut=    60.00 Ry     beta= 0.30
     Davidson diagonalization with overlap
     ethr =  2.52E-09,  avg # of iterations =  1.0

     negative rho (up, down):  1.768E-03 0.000E+00

     total cpu time spent up to now is      685.8 secs

     total energy              =     -53.05924540 Ry
     estimated scf accuracy    <       0.00000026 Ry

     iteration #  5     ecut=    60.00 Ry     beta= 0.30
     Davidson diagonalization with overlap
     ethr =  2.52E-09,  avg # of iterations =  1.0

     negative rho (up, down):  1.769E-03 0.000E+00

     total cpu time spent up to now is      701.9 secs

     total energy              =     -53.05924540 Ry
     estimated scf accuracy    <       0.00000029 Ry

     iteration #  6     ecut=    60.00 Ry     beta= 0.30
     Davidson diagonalization with overlap
     ethr =  2.52E-09,  avg # of iterations =  1.0

     negative rho (up, down):  1.769E-03 0.000E+00

     total cpu time spent up to now is      715.2 secs

     total energy              =     -53.05924551 Ry
     estimated scf accuracy    <       0.00000027 Ry

     iteration #  7     ecut=    60.00 Ry     beta= 0.30
     Davidson diagonalization with overlap
     ethr =  2.52E-09,  avg # of iterations =  2.0

     negative rho (up, down):  1.769E-03 0.000E+00

     total cpu time spent up to now is      730.4 secs

     total energy              =     -53.05924554 Ry
     estimated scf accuracy    <       0.00000082 Ry

     iteration #  8     ecut=    60.00 Ry     beta= 0.30
     Davidson diagonalization with overlap
     ethr =  2.52E-09,  avg # of iterations =  1.0

     negative rho (up, down):  1.769E-03 0.000E+00

     total cpu time spent up to now is      743.0 secs

     total energy              =     -53.05924554 Ry
     estimated scf accuracy    <       0.00000083 Ry

     iteration #  9     ecut=    60.00 Ry     beta= 0.30
     Davidson diagonalization with overlap
     ethr =  2.52E-09,  avg # of iterations =  1.0

     negative rho (up, down):  1.769E-03 0.000E+00

     total cpu time spent up to now is      753.1 secs

     total energy              =     -53.05924559 Ry
     estimated scf accuracy    <       0.00000085 Ry

     iteration # 10     ecut=    60.00 Ry     beta= 0.30
     Davidson diagonalization with overlap
     ethr =  2.52E-09,  avg # of iterations =  1.0

     negative rho (up, down):  1.769E-03 0.000E+00

     total cpu time spent up to now is      766.3 secs

     total energy              =     -53.05924546 Ry
     estimated scf accuracy    <       0.00000108 Ry

     iteration # 11     ecut=    60.00 Ry     beta= 0.30
     Davidson diagonalization with overlap
     ethr =  2.52E-09,  avg # of iterations =  1.0

     negative rho (up, down):  1.769E-03 0.000E+00

     total cpu time spent up to now is      777.9 secs

     total energy              =     -53.05924551 Ry
     estimated scf accuracy    <       0.00000074 Ry

     iteration # 12     ecut=    60.00 Ry     beta= 0.30
     Davidson diagonalization with overlap
     ethr =  2.52E-09,  avg # of iterations =  1.0

     negative rho (up, down):  1.770E-03 0.000E+00

     total cpu time spent up to now is      785.4 secs

     total energy              =     -53.05924591 Ry
     estimated scf accuracy    <       0.00000080 Ry

     iteration # 13     ecut=    60.00 Ry     beta= 0.30
     Davidson diagonalization with overlap
     ethr =  2.52E-09,  avg # of iterations =  3.0

     negative rho (up, down):  1.769E-03 0.000E+00

     total cpu time spent up to now is      798.2 secs

     total energy              =     -53.05924509 Ry
     estimated scf accuracy    <       0.00000308 Ry

     iteration # 14     ecut=    60.00 Ry     beta= 0.30
     Davidson diagonalization with overlap
     ethr =  2.52E-09,  avg # of iterations =  4.0

     negative rho (up, down):  1.769E-03 0.000E+00

     total cpu time spent up to now is      812.3 secs

     total energy              =     -53.05924548 Ry
     estimated scf accuracy    <       0.00000018 Ry

     iteration # 15     ecut=    60.00 Ry     beta= 0.30
     Davidson diagonalization with overlap
     ethr =  1.77E-09,  avg # of iterations =  2.0

     negative rho (up, down):  1.769E-03 0.000E+00

     total cpu time spent up to now is      828.6 secs

     total energy              =     -53.05924587 Ry
     estimated scf accuracy    <       0.00000069 Ry

     iteration # 16     ecut=    60.00 Ry     beta= 0.30
     Davidson diagonalization with overlap
     ethr =  1.77E-09,  avg # of iterations =  3.0

     negative rho (up, down):  1.769E-03 0.000E+00

     total cpu time spent up to now is      840.6 secs

     total energy              =     -53.05924536 Ry
     estimated scf accuracy    <       0.00000319 Ry

     iteration # 17     ecut=    60.00 Ry     beta= 0.30
     Davidson diagonalization with overlap
     ethr =  1.77E-09,  avg # of iterations =  4.0

     negative rho (up, down):  1.769E-03 0.000E+00

     total cpu time spent up to now is      857.2 secs

     total energy              =     -53.05924554 Ry
     estimated scf accuracy    <       0.00000076 Ry

     iteration # 18     ecut=    60.00 Ry     beta= 0.30
     Davidson diagonalization with overlap
     ethr =  1.77E-09,  avg # of iterations =  1.0

     negative rho (up, down):  1.769E-03 0.000E+00

     total cpu time spent up to now is      867.1 secs

     total energy              =     -53.05924522 Ry
     estimated scf accuracy    <       0.00000089 Ry

     iteration # 19     ecut=    60.00 Ry     beta= 0.30
     Davidson diagonalization with overlap
     ethr =  1.77E-09,  avg # of iterations =  3.0

     negative rho (up, down):  1.768E-03 0.000E+00

     total cpu time spent up to now is      877.0 secs

     total energy              =     -53.05924533 Ry
     estimated scf accuracy    <       0.00000003 Ry

     iteration # 20     ecut=    60.00 Ry     beta= 0.30
     Davidson diagonalization with overlap
     ethr =  2.84E-10,  avg # of iterations =  5.0

     negative rho (up, down):  1.768E-03 0.000E+00

     total cpu time spent up to now is      887.5 secs

     total energy              =     -53.05924534 Ry
     estimated scf accuracy    <       0.00000002 Ry

     iteration # 21     ecut=    60.00 Ry     beta= 0.30
     Davidson diagonalization with overlap
     ethr =  1.80E-10,  avg # of iterations =  3.0

     negative rho (up, down):  1.768E-03 0.000E+00

     total cpu time spent up to now is      895.7 secs

     total energy              =     -53.05924534 Ry
     estimated scf accuracy    <       0.00000001 Ry

     iteration # 22     ecut=    60.00 Ry     beta= 0.30
     Davidson diagonalization with overlap
     ethr =  1.31E-10,  avg # of iterations =  5.0

     negative rho (up, down):  1.768E-03 0.000E+00

     total cpu time spent up to now is      905.9 secs

     total energy              =     -53.05924535 Ry
     estimated scf accuracy    <       0.00000006 Ry

     iteration # 23     ecut=    60.00 Ry     beta= 0.30
     Davidson diagonalization with overlap
     ethr =  1.31E-10,  avg # of iterations =  2.0

     negative rho (up, down):  1.768E-03 0.000E+00

     total cpu time spent up to now is      913.8 secs

     total energy              =     -53.05924534 Ry
     estimated scf accuracy    <       0.00000003 Ry

     iteration # 24     ecut=    60.00 Ry     beta= 0.30
     Davidson diagonalization with overlap
     ethr =  1.31E-10,  avg # of iterations =  2.0

     negative rho (up, down):  1.768E-03 0.000E+00

     total cpu time spent up to now is      921.4 secs

     total energy              =     -53.05924534 Ry
     estimated scf accuracy    <          9.2E-09 Ry

     iteration # 25     ecut=    60.00 Ry     beta= 0.30
     Davidson diagonalization with overlap
     ethr =  9.19E-11,  avg # of iterations =  1.0

     negative rho (up, down):  1.768E-03 0.000E+00

     total cpu time spent up to now is      928.3 secs

     total energy              =     -53.05924534 Ry
     estimated scf accuracy    <          7.5E-09 Ry

     iteration # 26     ecut=    60.00 Ry     beta= 0.30
     Davidson diagonalization with overlap
     ethr =  7.46E-11,  avg # of iterations =  1.0

     negative rho (up, down):  1.768E-03 0.000E+00

     total cpu time spent up to now is      935.4 secs

     total energy              =     -53.05924534 Ry
     estimated scf accuracy    <          5.8E-09 Ry

     iteration # 27     ecut=    60.00 Ry     beta= 0.30
     Davidson diagonalization with overlap
     ethr =  5.83E-11,  avg # of iterations =  4.0

     negative rho (up, down):  1.768E-03 0.000E+00

     total cpu time spent up to now is      947.9 secs

     total energy              =     -53.05924535 Ry
     estimated scf accuracy    <       0.00000001 Ry

     iteration # 28     ecut=    60.00 Ry     beta= 0.30
     Davidson diagonalization with overlap
     ethr =  5.83E-11,  avg # of iterations =  2.0

     negative rho (up, down):  1.769E-03 0.000E+00

     total cpu time spent up to now is      958.2 secs

     total energy              =     -53.05924535 Ry
     estimated scf accuracy    <       0.00000004 Ry

     iteration # 29     ecut=    60.00 Ry     beta= 0.30
     Davidson diagonalization with overlap
     ethr =  5.83E-11,  avg # of iterations =  2.0

     negative rho (up, down):  1.768E-03 0.000E+00

     total cpu time spent up to now is      965.1 secs

     total energy              =     -53.05924533 Ry
     estimated scf accuracy    <       0.00000007 Ry

     iteration # 30     ecut=    60.00 Ry     beta= 0.30
     Davidson diagonalization with overlap
     ethr =  5.83E-11,  avg # of iterations =  5.0

     negative rho (up, down):  1.768E-03 0.000E+00

     total cpu time spent up to now is      975.2 secs

     total energy              =     -53.05924534 Ry
     estimated scf accuracy    <          7.0E-10 Ry

     iteration # 31     ecut=    60.00 Ry     beta= 0.30
     Davidson diagonalization with overlap
     ethr =  6.97E-12,  avg # of iterations =  5.0

     negative rho (up, down):  1.768E-03 0.000E+00

     total cpu time spent up to now is      986.2 secs

     total energy              =     -53.05924534 Ry
     estimated scf accuracy    <       0.00000001 Ry

     iteration # 32     ecut=    60.00 Ry     beta= 0.30
     Davidson diagonalization with overlap
     ethr =  6.97E-12,  avg # of iterations =  6.0

     negative rho (up, down):  1.768E-03 0.000E+00

     total cpu time spent up to now is      997.7 secs

     End of self-consistent calculation

          k = 0.0000 0.0000 0.0000 ( 89463 PWs)   bands (ev):

   -29.2751 -14.1366 -11.7864 -11.7864  -9.0461

     highest occupied level (ev):    -9.0461

!    total energy              =     -53.05924534 Ry
     estimated scf accuracy    <          4.1E-10 Ry

     The total energy is the sum of the following terms:
     one-electron contribution =    -112.54802104 Ry
     hartree contribution      =      57.41535104 Ry
     xc contribution           =     -10.66962631 Ry
     ewald contribution        =      22.27223055 Ry
     one-center paw contrib.   =      -9.52917957 Ry

     convergence has been achieved in  32 iterations

     negative rho (up, down):  1.768E-03 0.000E+00

     Forces acting on atoms (cartesian axes, Ry/au):

     atom    1 type  1   force =     0.00000000    0.00000000    0.00028841
     atom    2 type  2   force =     0.00000000    0.00000000   -0.00028841

     Total force =     0.000408     Total SCF correction =     0.000041
     SCF correction compared to forces is large: reduce conv_thr to get better values
     Energy error            =      7.7E-06 Ry
     Gradient error          =      2.9E-04 Ry/Bohr

     number of scf cycles    =   4
     number of bfgs steps    =   2

     energy             old  =     -53.0592375973 Ry
     energy             new  =     -53.0592453405 Ry

     CASE: energy            _new < energy            _old

     small trust_radius: resetting bfgs history

     new trust radius        =       0.0001000000 bohr
     new conv_thr            =            1.0E-10 Ry


ATOMIC_POSITIONS (angstrom)
C             7.5000000000        7.5000000000        7.4298247571
O             7.5000000000        7.5000000000        8.5701752429



     Writing config-only to output data dir ./tmp/co.save/
     NEW-OLD atomic charge density approx. for the potential

     negative rho (up, down):  1.768E-03 0.000E+00

     total cpu time spent up to now is     1003.2 secs

     Self-consistent Calculation

     iteration #  1     ecut=    60.00 Ry     beta= 0.30
     Davidson diagonalization with overlap
     ethr =  1.00E-06,  avg # of iterations =  2.0

     Threshold (ethr) on eigenvalues was too large:
     Diagonalizing with lowered threshold

     Davidson diagonalization with overlap
     ethr =  1.62E-10,  avg # of iterations =  2.0

     negative rho (up, down):  1.768E-03 0.000E+00

     total cpu time spent up to now is     1017.2 secs

     total energy              =     -53.05924535 Ry
     estimated scf accuracy    <       0.00000002 Ry

     iteration #  2     ecut=    60.00 Ry     beta= 0.30
     Davidson diagonalization with overlap
     ethr =  2.27E-10,  avg # of iterations =  1.0

     negative rho (up, down):  1.768E-03 0.000E+00

     total cpu time spent up to now is     1026.5 secs

     total energy              =     -53.05924534 Ry
     estimated scf accuracy    <          5.6E-09 Ry

     iteration #  3     ecut=    60.00 Ry     beta= 0.30
     Davidson diagonalization with overlap
     ethr =  5.63E-11,  avg # of iterations =  3.0

     negative rho (up, down):  1.768E-03 0.000E+00

     total cpu time spent up to now is     1039.4 secs

     total energy              =     -53.05924535 Ry
     estimated scf accuracy    <          3.6E-09 Ry

     iteration #  4     ecut=    60.00 Ry     beta= 0.30
     Davidson diagonalization with overlap
     ethr =  3.65E-11,  avg # of iterations =  3.0

     negative rho (up, down):  1.768E-03 0.000E+00

     total cpu time spent up to now is     1046.8 secs

     total energy              =     -53.05924534 Ry
     estimated scf accuracy    <       0.00000001 Ry

     iteration #  5     ecut=    60.00 Ry     beta= 0.30
     Davidson diagonalization with overlap
     ethr =  3.65E-11,  avg # of iterations =  3.0

     negative rho (up, down):  1.768E-03 0.000E+00

     total cpu time spent up to now is     1054.7 secs

     End of self-consistent calculation

          k = 0.0000 0.0000 0.0000 ( 89463 PWs)   bands (ev):

   -29.2765 -14.1364 -11.7872 -11.7872  -9.0458

     highest occupied level (ev):    -9.0458

!    total energy              =     -53.05924535 Ry
     estimated scf accuracy    <          6.9E-11 Ry

     The total energy is the sum of the following terms:
     one-electron contribution =    -112.55149607 Ry
     hartree contribution      =      57.41694053 Ry
     xc contribution           =     -10.66981411 Ry
     ewald contribution        =      22.27429763 Ry
     one-center paw contrib.   =      -9.52917333 Ry

     convergence has been achieved in   5 iterations

     negative rho (up, down):  1.768E-03 0.000E+00

     Forces acting on atoms (cartesian axes, Ry/au):

     atom    1 type  1   force =     0.00000000    0.00000000   -0.00019076
     atom    2 type  2   force =     0.00000000    0.00000000    0.00019076

     Total force =     0.000270     Total SCF correction =     0.000017
     Energy error            =      5.0E-09 Ry
     Gradient error          =      1.9E-04 Ry/Bohr

     number of scf cycles    =   5
     number of bfgs steps    =   3

     energy             old  =     -53.0592453405 Ry
     energy             new  =     -53.0592453455 Ry

     CASE: energy            _new < energy            _old

     Message from routine bfgs :: compute_trust_radius:
     history already reset at previous step: stopping
     small trust_radius: resetting bfgs history

     new trust radius        =       0.0001000000 bohr
     new conv_thr            =            1.0E-10 Ry


ATOMIC_POSITIONS (angstrom)
C             7.5000000000        7.5000000000        7.4297718394
O             7.5000000000        7.5000000000        8.5702281606



     Writing config-only to output data dir ./tmp/co.save/
     NEW-OLD atomic charge density approx. for the potential

     negative rho (up, down):  1.768E-03 0.000E+00

     total cpu time spent up to now is     1059.3 secs

     Self-consistent Calculation

     iteration #  1     ecut=    60.00 Ry     beta= 0.30
     Davidson diagonalization with overlap
     ethr =  1.00E-06,  avg # of iterations =  2.0

     Threshold (ethr) on eigenvalues was too large:
     Diagonalizing with lowered threshold

     Davidson diagonalization with overlap
     ethr =  1.36E-10,  avg # of iterations =  2.0

     negative rho (up, down):  1.768E-03 0.000E+00

     total cpu time spent up to now is     1073.1 secs

     total energy              =     -53.05924534 Ry
     estimated scf accuracy    <       0.00000001 Ry

     iteration #  2     ecut=    60.00 Ry     beta= 0.30
     Davidson diagonalization with overlap
     ethr =  1.49E-10,  avg # of iterations =  1.0

     negative rho (up, down):  1.768E-03 0.000E+00

     total cpu time spent up to now is     1080.9 secs

     total energy              =     -53.05924534 Ry
     estimated scf accuracy    <          4.4E-09 Ry

     iteration #  3     ecut=    60.00 Ry     beta= 0.30
     Davidson diagonalization with overlap
     ethr =  4.38E-11,  avg # of iterations =  2.0

     negative rho (up, down):  1.768E-03 0.000E+00

     total cpu time spent up to now is     1088.9 secs

     total energy              =     -53.05924534 Ry
     estimated scf accuracy    <          1.9E-10 Ry

     iteration #  4     ecut=    60.00 Ry     beta= 0.30
     Davidson diagonalization with overlap
     ethr =  1.91E-12,  avg # of iterations =  2.0

     negative rho (up, down):  1.768E-03 0.000E+00

     total cpu time spent up to now is     1095.3 secs

     End of self-consistent calculation

          k = 0.0000 0.0000 0.0000 ( 89463 PWs)   bands (ev):

   -29.2750 -14.1365 -11.7863 -11.7863  -9.0461

     highest occupied level (ev):    -9.0461

!    total energy              =     -53.05924534 Ry
     estimated scf accuracy    <          7.9E-11 Ry

     The total energy is the sum of the following terms:
     one-electron contribution =    -112.54795770 Ry
     hartree contribution      =      57.41527434 Ry
     xc contribution           =     -10.66961289 Ry
     ewald contribution        =      22.27223055 Ry
     one-center paw contrib.   =      -9.52917964 Ry

     convergence has been achieved in   4 iterations

     negative rho (up, down):  1.768E-03 0.000E+00

     Forces acting on atoms (cartesian axes, Ry/au):

     atom    1 type  1   force =     0.00000000    0.00000000    0.00029019
     atom    2 type  2   force =     0.00000000    0.00000000   -0.00029019

     Total force =     0.000410     Total SCF correction =     0.000005
     Message from routine bfgs:
     history already reset at previous step: exiting
     Energy error            =      5.2E-09 Ry
     Gradient error          =      2.9E-04 Ry/Bohr

     bfgs failed after   6 scf cycles and   4 bfgs steps, convergence not achieved
     (criteria: energy <  1.0E-04 Ry, force <  1.0E-04 Ry/Bohr)

     End of BFGS Geometry Optimization

     Final energy             =     -53.0592453402 Ry

     File ./tmp/co.bfgs deleted, as requested
Begin final coordinates

ATOMIC_POSITIONS (angstrom)
C             7.5000000000        7.5000000000        7.4297718394
O             7.5000000000        7.5000000000        8.5702281606
End final coordinates



     Writing all to output data dir ./tmp/co.save/

     init_run     :     17.25s CPU     26.40s WALL (       1 calls)
     electrons    :    578.08s CPU   1042.39s WALL (       6 calls)
     update_pot   :      9.22s CPU      4.99s WALL (       5 calls)
     forces       :     19.73s CPU     17.05s WALL (       6 calls)

     Called by init_run:
     wfcinit      :      3.84s CPU     10.68s WALL (       1 calls)
     potinit      :      5.03s CPU      6.33s WALL (       1 calls)
     hinit0       :      7.07s CPU      7.92s WALL (       1 calls)

     Called by electrons:
     c_bands      :    187.52s CPU    568.19s WALL (      83 calls)
     sum_band     :    186.70s CPU    250.92s WALL (      83 calls)
     v_of_rho     :    105.46s CPU     83.43s WALL (      86 calls)
     newd         :     70.13s CPU    109.22s WALL (      86 calls)
     PAW_pot      :      1.62s CPU      1.30s WALL (      91 calls)
     mix_rho      :     20.76s CPU     17.82s WALL (      83 calls)

     Called by c_bands:
     init_us_2    :      1.30s CPU      1.95s WALL (     172 calls)
     init_us_2:cp :      1.30s CPU      1.95s WALL (     172 calls)
     regterg      :    186.04s CPU    566.83s WALL (      83 calls)

     Called by *egterg:
     rdiaghg      :      0.08s CPU      0.37s WALL (     299 calls)
     h_psi        :    184.32s CPU    572.47s WALL (     308 calls)
     s_psi        :      1.08s CPU      0.31s WALL (     308 calls)
     g_psi        :      0.25s CPU      0.12s WALL (     224 calls)

     Called by h_psi:
     h_psi:calbec :      0.66s CPU      1.47s WALL (     308 calls)
     vloc_psi     :    182.49s CPU    570.43s WALL (     308 calls)
     add_vuspsi   :      1.03s CPU      0.42s WALL (     308 calls)

     General routines
     calbec       :      0.92s CPU      1.91s WALL (     420 calls)
     fft          :     95.23s CPU     29.88s WALL (    1002 calls)
     ffts         :      8.56s CPU      7.03s WALL (     169 calls)
     fftw         :    204.97s CPU    647.81s WALL (    1757 calls)
     interpolate  :     15.38s CPU     12.16s WALL (      86 calls)

     Parallel routines

     PWSCF        :  10m30.00s CPU  18m18.43s WALL


   This run was terminated on:  17: 5:26   7Aug2026            

=------------------------------------------------------------------------------=
   JOB DONE.
=------------------------------------------------------------------------------=
