
     Program PWSCF v.7.1 starts on  7Aug2026 at 16:47:29 

     This program is part of the open-source Quantum ESPRESSO suite
     for quantum simulation of materials; please cite
         "P. Giannozzi et al., J. Phys.:Condens. Matter 21 395502 (2009);
         "P. Giannozzi et al., J. Phys.:Condens. Matter 29 465901 (2017);
         "P. Giannozzi et al., J. Chem. Phys. 152 154105 (2020);
          URL http://www.quantum-espresso.org", 
     in publications or presentations arising from this work. More details at
     http://www.quantum-espresso.org/quote

     Parallel version (MPI & OpenMP), running on      10 processor cores
     Number of MPI processes:                 1
     Threads/MPI process:                    10

     MPI processes distributed on     1 nodes
     0 MiB available memory on the printing compute node when the environment starts

     Waiting for input...
     Reading input from standard input

     Current dimensions of program PWSCF are:
     Max number of different atomic species (ntypx) = 10
     Max number of k-points (npk) =  40000
     Max angular momentum in pseudopotentials (lmaxx) =  4

     gamma-point specific algorithms are used
     Message from routine setup:
     using ibrav=0 with symmetry is DISCOURAGED, use correct ibrav instead

     Subspace diagonalization in iterative solution of the eigenvalue problem:
     a serial algorithm will be used


     G-vector sticks info
     --------------------
     sticks:   dense  smooth     PW     G-vecs:    dense   smooth      PW
     Sum       30669   15329   3833              4044289  1429635  178925

     Using Slab Decomposition



     bravais-lattice index     =            0
     lattice parameter (alat)  =      28.3459  a.u.
     unit-cell volume          =   22775.6289 (a.u.)^3
     number of atoms/cell      =            2
     number of atomic types    =            1
     number of electrons       =         2.00
     number of Kohn-Sham states=            1
     kinetic-energy cutoff     =      60.0000  Ry
     charge density cutoff     =     480.0000  Ry
     scf convergence threshold =      1.0E-08
     mixing beta               =       0.3000
     number of iterations used =            8  plain     mixing
     energy convergence thresh.=      1.0E-04
     force convergence thresh. =      1.0E-04
     Exchange-correlation= PBE
                           (   1   4   3   4   0   0   0)
     nstep                     =           50

     Assuming isolated system, Martyna-Tuckerman method


     celldm(1)=  28.345892  celldm(2)=   0.000000  celldm(3)=   0.000000
     celldm(4)=   0.000000  celldm(5)=   0.000000  celldm(6)=   0.000000

     crystal axes: (cart. coord. in units of alat)
               a(1) = (   1.000000   0.000000   0.000000 )  
               a(2) = (   0.000000   1.000000   0.000000 )  
               a(3) = (   0.000000   0.000000   1.000000 )  

     reciprocal axes: (cart. coord. in units 2 pi/alat)
               b(1) = (  1.000000  0.000000  0.000000 )  
               b(2) = (  0.000000  1.000000  0.000000 )  
               b(3) = (  0.000000  0.000000  1.000000 )  


     PseudoPot. # 1 for H  read from file:
     ./pseudo/H.us.pbe.z_1.ld1.psl.v1.0.0-high.upf
     MD5 check sum: e76273ea4edb62c5e3246d46a5fe24e3
     Pseudo is Ultrasoft, Zval =  1.0
     Generated using &quot;atomic&quot; code by A. Dal Corso  v.6.3MaX
     Using radial grid of  929 points,  2 beta functions with: 
                l(1) =   0
                l(2) =   0
     Q(r) pseudized with 0 coefficients 


     atomic species   valence    mass     pseudopotential
        H              1.00     1.00794     H ( 1.00)

     16 Sym. Ops., with inversion, found



   Cartesian axes

     site n.     atom                  positions (alat units)
         1           H   tau(   1) = (   0.5000000   0.5000000   0.4752667  )
         2           H   tau(   2) = (   0.5000000   0.5000000   0.5247333  )

     number of k points=     1
                       cart. coord. in units 2pi/alat
        k(    1) = (   0.0000000   0.0000000   0.0000000), wk =   2.0000000

     Dense  grid:  2022145 G-vectors     FFT dimensions: ( 200, 200, 200)

     Smooth grid:   714818 G-vectors     FFT dimensions: ( 144, 144, 144)

     Estimated max dynamical RAM per process >       1.67 GB

     Initial potential from superposition of free atoms

     starting charge       2.0000, renormalised to       2.0000

     negative rho (up, down):  2.874E-05 0.000E+00
     Starting wfcs are    2 randomized atomic wfcs

     total cpu time spent up to now is       27.2 secs

     Self-consistent Calculation

     iteration #  1     ecut=    60.00 Ry     beta= 0.30
     Davidson diagonalization with overlap
     ethr =  1.00E-02,  avg # of iterations =  2.0

     negative rho (up, down):  4.188E-05 0.000E+00

     total cpu time spent up to now is       34.6 secs

     total energy              =      -2.35272043 Ry
     estimated scf accuracy    <       0.11625453 Ry

     iteration #  2     ecut=    60.00 Ry     beta= 0.30
     Davidson diagonalization with overlap
     ethr =  5.81E-03,  avg # of iterations =  1.0

     negative rho (up, down):  9.980E-05 0.000E+00

     total cpu time spent up to now is       40.8 secs

     total energy              =      -2.32724839 Ry
     estimated scf accuracy    <       0.04672956 Ry

     iteration #  3     ecut=    60.00 Ry     beta= 0.30
     Davidson diagonalization with overlap
     ethr =  2.34E-03,  avg # of iterations =  2.0

     negative rho (up, down):  8.532E-05 0.000E+00

     total cpu time spent up to now is       45.5 secs

     total energy              =      -2.33316160 Ry
     estimated scf accuracy    <       0.00036465 Ry

     iteration #  4     ecut=    60.00 Ry     beta= 0.30
     Davidson diagonalization with overlap
     ethr =  1.82E-05,  avg # of iterations =  1.0

     negative rho (up, down):  7.184E-05 0.000E+00

     total cpu time spent up to now is       50.3 secs

     total energy              =      -2.33311630 Ry
     estimated scf accuracy    <       0.00012470 Ry

     iteration #  5     ecut=    60.00 Ry     beta= 0.30
     Davidson diagonalization with overlap
     ethr =  6.24E-06,  avg # of iterations =  2.0

     negative rho (up, down):  7.384E-05 0.000E+00

     total cpu time spent up to now is       58.9 secs

     total energy              =      -2.33312946 Ry
     estimated scf accuracy    <       0.00004060 Ry

     iteration #  6     ecut=    60.00 Ry     beta= 0.30
     Davidson diagonalization with overlap
     ethr =  2.03E-06,  avg # of iterations =  1.0

     negative rho (up, down):  7.509E-05 0.000E+00

     total cpu time spent up to now is       63.2 secs

     total energy              =      -2.33313231 Ry
     estimated scf accuracy    <       0.00000134 Ry

     iteration #  7     ecut=    60.00 Ry     beta= 0.30
     Davidson diagonalization with overlap
     ethr =  6.68E-08,  avg # of iterations =  1.0

     negative rho (up, down):  7.681E-05 0.000E+00

     total cpu time spent up to now is       68.0 secs

     total energy              =      -2.33313171 Ry
     estimated scf accuracy    <       0.00000110 Ry

     iteration #  8     ecut=    60.00 Ry     beta= 0.30
     Davidson diagonalization with overlap
     ethr =  5.50E-08,  avg # of iterations =  2.0

     negative rho (up, down):  7.985E-05 0.000E+00

     total cpu time spent up to now is       74.2 secs

     End of self-consistent calculation

          k = 0.0000 0.0000 0.0000 ( 89463 PWs)   bands (ev):

   -10.3786

     highest occupied level (ev):   -10.3786

!    total energy              =      -2.33313190 Ry
     estimated scf accuracy    <          3.6E-10 Ry

     The total energy is the sum of the following terms:
     one-electron contribution =      -5.00472076 Ry
     hartree contribution      =       2.62561306 Ry
     xc contribution           =      -1.38037787 Ry
     ewald contribution        =       1.42635367 Ry

     convergence has been achieved in   8 iterations

     Forces acting on atoms (cartesian axes, Ry/au):

     atom    1 type  1   force =     0.00000000    0.00000000   -0.01150744
     atom    2 type  1   force =     0.00000000    0.00000000    0.01150744

     Total force =     0.016274     Total SCF correction =     0.000005

     BFGS Geometry Optimization
     Energy error            =      0.0E+00 Ry
     Gradient error          =      1.2E-02 Ry/Bohr

     number of scf cycles    =   1
     number of bfgs steps    =   0

     energy             new  =      -2.3331319032 Ry

     new trust radius        =       0.0115074396 bohr
     new conv_thr            =       0.0000000100 Ry


ATOMIC_POSITIONS (angstrom)
H             7.5000000000        7.5000000000        7.1229105252
H             7.5000000000        7.5000000000        7.8770894748



     Writing config-only to output data dir ./tmp/h2.save/
     NEW-OLD atomic charge density approx. for the potential

     negative rho (up, down):  7.939E-05 0.000E+00

     total cpu time spent up to now is       78.3 secs

     Self-consistent Calculation

     iteration #  1     ecut=    60.00 Ry     beta= 0.30
     Davidson diagonalization with overlap
     ethr =  1.00E-06,  avg # of iterations =  3.0

     negative rho (up, down):  7.913E-05 0.000E+00

     total cpu time spent up to now is       87.9 secs

     total energy              =      -2.33320804 Ry
     estimated scf accuracy    <       0.00004369 Ry

     iteration #  2     ecut=    60.00 Ry     beta= 0.30
     Davidson diagonalization with overlap
     ethr =  2.18E-06,  avg # of iterations =  1.0

     negative rho (up, down):  7.938E-05 0.000E+00

     total cpu time spent up to now is       95.9 secs

     total energy              =      -2.33320178 Ry
     estimated scf accuracy    <       0.00001655 Ry

     iteration #  3     ecut=    60.00 Ry     beta= 0.30
     Davidson diagonalization with overlap
     ethr =  8.27E-07,  avg # of iterations =  2.0

     negative rho (up, down):  7.936E-05 0.000E+00

     total cpu time spent up to now is      100.8 secs

     total energy              =      -2.33320371 Ry
     estimated scf accuracy    <       0.00000013 Ry

     iteration #  4     ecut=    60.00 Ry     beta= 0.30
     Davidson diagonalization with overlap
     ethr =  6.50E-09,  avg # of iterations =  2.0

     negative rho (up, down):  7.917E-05 0.000E+00

     total cpu time spent up to now is      105.4 secs

     total energy              =      -2.33320370 Ry
     estimated scf accuracy    <       0.00000007 Ry

     iteration #  5     ecut=    60.00 Ry     beta= 0.30
     Davidson diagonalization with overlap
     ethr =  3.62E-09,  avg # of iterations =  1.0

     negative rho (up, down):  7.893E-05 0.000E+00

     total cpu time spent up to now is      111.3 secs

     End of self-consistent calculation

          k = 0.0000 0.0000 0.0000 ( 89463 PWs)   bands (ev):

   -10.3200

     highest occupied level (ev):   -10.3200

!    total energy              =      -2.33320370 Ry
     estimated scf accuracy    <          1.5E-10 Ry

     The total energy is the sum of the following terms:
     one-electron contribution =      -4.97291241 Ry
     hartree contribution      =       2.60907518 Ry
     xc contribution           =      -1.37268650 Ry
     ewald contribution        =       1.40332002 Ry

     convergence has been achieved in   5 iterations

     Forces acting on atoms (cartesian axes, Ry/au):

     atom    1 type  1   force =     0.00000000    0.00000000    0.00506896
     atom    2 type  1   force =     0.00000000    0.00000000   -0.00506896

     Total force =     0.007169     Total SCF correction =     0.000004
     Energy error            =      7.2E-05 Ry
     Gradient error          =      5.1E-03 Ry/Bohr

     number of scf cycles    =   2
     number of bfgs steps    =   1

     energy             old  =      -2.3331319032 Ry
     energy             new  =      -2.3332037040 Ry

     CASE: energy            _new < energy            _old

     new trust radius        =       0.0035189049 bohr
     new conv_thr            =            1.0E-10 Ry


ATOMIC_POSITIONS (angstrom)
H             7.5000000000        7.5000000000        7.1247726495
H             7.5000000000        7.5000000000        7.8752273505



     Writing config-only to output data dir ./tmp/h2.save/
     NEW-OLD atomic charge density approx. for the potential

     negative rho (up, down):  7.898E-05 0.000E+00

     total cpu time spent up to now is      116.0 secs

     Self-consistent Calculation

     iteration #  1     ecut=    60.00 Ry     beta= 0.30
     Davidson diagonalization with overlap
     ethr =  1.00E-06,  avg # of iterations =  2.0

     negative rho (up, down):  7.904E-05 0.000E+00

     total cpu time spent up to now is      122.4 secs

     total energy              =      -2.33322252 Ry
     estimated scf accuracy    <       0.00000387 Ry

     iteration #  2     ecut=    60.00 Ry     beta= 0.30
     Davidson diagonalization with overlap
     ethr =  1.94E-07,  avg # of iterations =  1.0

     negative rho (up, down):  7.913E-05 0.000E+00

     total cpu time spent up to now is      126.3 secs

     total energy              =      -2.33322184 Ry
     estimated scf accuracy    <       0.00000160 Ry

     iteration #  3     ecut=    60.00 Ry     beta= 0.30
     Davidson diagonalization with overlap
     ethr =  8.02E-08,  avg # of iterations =  2.0

     negative rho (up, down):  7.913E-05 0.000E+00

     total cpu time spent up to now is      135.4 secs

     total energy              =      -2.33322208 Ry
     estimated scf accuracy    <       0.00000003 Ry

     iteration #  4     ecut=    60.00 Ry     beta= 0.30
     Davidson diagonalization with overlap
     ethr =  1.53E-09,  avg # of iterations =  2.0

     negative rho (up, down):  7.915E-05 0.000E+00

     total cpu time spent up to now is      139.9 secs

     total energy              =      -2.33322206 Ry
     estimated scf accuracy    <       0.00000009 Ry

     iteration #  5     ecut=    60.00 Ry     beta= 0.30
     Davidson diagonalization with overlap
     ethr =  1.53E-09,  avg # of iterations =  2.0

     negative rho (up, down):  7.920E-05 0.000E+00

     total cpu time spent up to now is      145.9 secs

     End of self-consistent calculation

          k = 0.0000 0.0000 0.0000 ( 89463 PWs)   bands (ev):

   -10.3380

     highest occupied level (ev):   -10.3380

!    total energy              =      -2.33322207 Ry
     estimated scf accuracy    <          1.5E-11 Ry

     The total energy is the sum of the following terms:
     one-electron contribution =      -4.98259229 Ry
     hartree contribution      =       2.61411451 Ry
     xc contribution           =      -1.37502850 Ry
     ewald contribution        =       1.41028422 Ry

     convergence has been achieved in   5 iterations

     Forces acting on atoms (cartesian axes, Ry/au):

     atom    1 type  1   force =     0.00000000    0.00000000    0.00013929
     atom    2 type  1   force =     0.00000000    0.00000000   -0.00013929

     Total force =     0.000197     Total SCF correction =     0.000001
     Energy error            =      1.8E-05 Ry
     Gradient error          =      1.4E-04 Ry/Bohr

     number of scf cycles    =   3
     number of bfgs steps    =   2

     energy             old  =      -2.3332037040 Ry
     energy             new  =      -2.3332220675 Ry

     CASE: energy            _new < energy            _old

     small trust_radius: resetting bfgs history

     new trust radius        =       0.0001000000 bohr
     new conv_thr            =            1.0E-10 Ry


ATOMIC_POSITIONS (angstrom)
H             7.5000000000        7.5000000000        7.1248255672
H             7.5000000000        7.5000000000        7.8751744328



     Writing config-only to output data dir ./tmp/h2.save/
     NEW-OLD atomic charge density approx. for the potential

     negative rho (up, down):  7.920E-05 0.000E+00

     total cpu time spent up to now is      148.7 secs

     Self-consistent Calculation

     iteration #  1     ecut=    60.00 Ry     beta= 0.30
     Davidson diagonalization with overlap
     ethr =  1.00E-06,  avg # of iterations =  1.0

     Threshold (ethr) on eigenvalues was too large:
     Diagonalizing with lowered threshold

     Davidson diagonalization with overlap
     ethr =  1.07E-10,  avg # of iterations =  2.0

     negative rho (up, down):  7.920E-05 0.000E+00

     total cpu time spent up to now is      159.0 secs

     total energy              =      -2.33322208 Ry
     estimated scf accuracy    <          3.0E-09 Ry

     iteration #  2     ecut=    60.00 Ry     beta= 0.30
     Davidson diagonalization with overlap
     ethr =  1.49E-10,  avg # of iterations =  1.0

     negative rho (up, down):  7.920E-05 0.000E+00

     total cpu time spent up to now is      163.6 secs

     total energy              =      -2.33322208 Ry
     estimated scf accuracy    <          1.1E-09 Ry

     iteration #  3     ecut=    60.00 Ry     beta= 0.30
     Davidson diagonalization with overlap
     ethr =  5.68E-11,  avg # of iterations =  2.0

     negative rho (up, down):  7.920E-05 0.000E+00

     total cpu time spent up to now is      167.8 secs

     End of self-consistent calculation

          k = 0.0000 0.0000 0.0000 ( 89463 PWs)   bands (ev):

   -10.3384

     highest occupied level (ev):   -10.3384

!    total energy              =      -2.33322208 Ry
     estimated scf accuracy    <          9.7E-12 Ry

     The total energy is the sum of the following terms:
     one-electron contribution =      -4.98286513 Ry
     hartree contribution      =       2.61425234 Ry
     xc contribution           =      -1.37509243 Ry
     ewald contribution        =       1.41048314 Ry

     convergence has been achieved in   3 iterations

     Forces acting on atoms (cartesian axes, Ry/au):

     atom    1 type  1   force =     0.00000000    0.00000000   -0.00000471
     atom    2 type  1   force =     0.00000000    0.00000000    0.00000471

     Total force =     0.000007     Total SCF correction =     0.000000
     Energy error            =      1.0E-08 Ry
     Gradient error          =      4.7E-06 Ry/Bohr

     bfgs converged in   4 scf cycles and   3 bfgs steps
     (criteria: energy <  1.0E-04 Ry, force <  1.0E-04 Ry/Bohr)

     End of BFGS Geometry Optimization

     Final energy             =      -2.3332220774 Ry

     File ./tmp/h2.bfgs deleted, as requested
Begin final coordinates

ATOMIC_POSITIONS (angstrom)
H             7.5000000000        7.5000000000        7.1248255672
H             7.5000000000        7.5000000000        7.8751744328
End final coordinates



     Writing all to output data dir ./tmp/h2.save/

     init_run     :     13.01s CPU     27.22s WALL (       1 calls)
     electrons    :     64.13s CPU    129.35s WALL (       4 calls)
     update_pot   :      5.07s CPU      7.24s WALL (       3 calls)
     forces       :      3.47s CPU      3.18s WALL (       4 calls)

     Called by init_run:
     wfcinit      :      2.66s CPU      8.18s WALL (       1 calls)
     potinit      :      4.35s CPU      7.83s WALL (       1 calls)
     hinit0       :      5.28s CPU     10.43s WALL (       1 calls)

     Called by electrons:
     c_bands      :     15.10s CPU     65.82s WALL (      22 calls)
     sum_band     :      7.88s CPU     15.93s WALL (      22 calls)
     v_of_rho     :     32.17s CPU     37.74s WALL (      25 calls)
     newd         :      3.93s CPU      3.47s WALL (      25 calls)
     mix_rho      :      4.66s CPU      4.19s WALL (      22 calls)

     Called by c_bands:
     init_us_2    :      0.07s CPU      0.13s WALL (      45 calls)
     init_us_2:cp :      0.07s CPU      0.13s WALL (      45 calls)
     regterg      :     15.04s CPU     65.72s WALL (      22 calls)

     Called by *egterg:
     rdiaghg      :      0.01s CPU      0.03s WALL (      54 calls)
     h_psi        :     17.58s CPU     73.63s WALL (      59 calls)
     s_psi        :      0.02s CPU      0.02s WALL (      59 calls)
     g_psi        :      0.01s CPU      0.02s WALL (      36 calls)

     Called by h_psi:
     h_psi:calbec :      0.02s CPU      0.14s WALL (      59 calls)
     vloc_psi     :     17.53s CPU     73.42s WALL (      59 calls)
     add_vuspsi   :      0.02s CPU      0.03s WALL (      59 calls)

     General routines
     calbec       :      0.03s CPU      0.17s WALL (      97 calls)
     fft          :     32.35s CPU     17.34s WALL (     283 calls)
     ffts         :      4.30s CPU      7.08s WALL (      47 calls)
     fftw         :     19.83s CPU     84.14s WALL (     140 calls)
     interpolate  :      6.44s CPU      9.11s WALL (      25 calls)

     Parallel routines

     PWSCF        :   1m27.09s CPU   2m48.65s WALL


   This run was terminated on:  16:50:17   7Aug2026            

=------------------------------------------------------------------------------=
   JOB DONE.
=------------------------------------------------------------------------------=
