
     Program PWSCF v.7.1 starts on  7Aug2026 at 16:47:24 

     This program is part of the open-source Quantum ESPRESSO suite
     for quantum simulation of materials; please cite
         "P. Giannozzi et al., J. Phys.:Condens. Matter 21 395502 (2009);
         "P. Giannozzi et al., J. Phys.:Condens. Matter 29 465901 (2017);
         "P. Giannozzi et al., J. Chem. Phys. 152 154105 (2020);
          URL http://www.quantum-espresso.org", 
     in publications or presentations arising from this work. More details at
     http://www.quantum-espresso.org/quote

     Parallel version (MPI & OpenMP), running on      10 processor cores
     Number of MPI processes:                 1
     Threads/MPI process:                    10

     MPI processes distributed on     1 nodes
     0 MiB available memory on the printing compute node when the environment starts

     Waiting for input...
     Reading input from standard input

     Current dimensions of program PWSCF are:
     Max number of different atomic species (ntypx) = 10
     Max number of k-points (npk) =  40000
     Max angular momentum in pseudopotentials (lmaxx) =  4
     file O.paw.pbe.z_6.ld1.psl.v0.1.upf: wavefunction(s)  2P renormalized

     gamma-point specific algorithms are used
     Message from routine setup:
     using ibrav=0 with symmetry is DISCOURAGED, use correct ibrav instead

     Subspace diagonalization in iterative solution of the eigenvalue problem:
     a serial algorithm will be used


     G-vector sticks info
     --------------------
     sticks:   dense  smooth     PW     G-vecs:    dense   smooth      PW
     Sum       30669   15329   3833              4044289  1429635  178925

     Using Slab Decomposition



     bravais-lattice index     =            0
     lattice parameter (alat)  =      28.3459  a.u.
     unit-cell volume          =   22775.6289 (a.u.)^3
     number of atoms/cell      =            3
     number of atomic types    =            2
     number of electrons       =         8.00
     number of Kohn-Sham states=            4
     kinetic-energy cutoff     =      60.0000  Ry
     charge density cutoff     =     480.0000  Ry
     scf convergence threshold =      1.0E-08
     mixing beta               =       0.3000
     number of iterations used =            8  plain     mixing
     energy convergence thresh.=      1.0E-04
     force convergence thresh. =      1.0E-04
     Exchange-correlation= PBE
                           (   1   4   3   4   0   0   0)
     nstep                     =           50

     Assuming isolated system, Martyna-Tuckerman method


     celldm(1)=  28.345892  celldm(2)=   0.000000  celldm(3)=   0.000000
     celldm(4)=   0.000000  celldm(5)=   0.000000  celldm(6)=   0.000000

     crystal axes: (cart. coord. in units of alat)
               a(1) = (   1.000000   0.000000   0.000000 )  
               a(2) = (   0.000000   1.000000   0.000000 )  
               a(3) = (   0.000000   0.000000   1.000000 )  

     reciprocal axes: (cart. coord. in units 2 pi/alat)
               b(1) = (  1.000000  0.000000  0.000000 )  
               b(2) = (  0.000000  1.000000  0.000000 )  
               b(3) = (  0.000000  0.000000  1.000000 )  


     PseudoPot. # 1 for O  read from file:
     ./pseudo/O.paw.pbe.z_6.ld1.psl.v0.1.upf
     MD5 check sum: a60b4d0ae3a5477449b52f76b61da220
     Pseudo is Projector augmented-wave + core cor, Zval =  6.0
     Generated using &quot;atomic&quot; code by A. Dal Corso  v.6.3MaX
     Shape of augmentation charge: BESSEL
     Using radial grid of 1095 points,  4 beta functions with: 
                l(1) =   0
                l(2) =   0
                l(3) =   1
                l(4) =   1
     Q(r) pseudized with 0 coefficients 


     PseudoPot. # 2 for H  read from file:
     ./pseudo/H.us.pbe.z_1.ld1.psl.v1.0.0-high.upf
     MD5 check sum: e76273ea4edb62c5e3246d46a5fe24e3
     Pseudo is Ultrasoft, Zval =  1.0
     Generated using &quot;atomic&quot; code by A. Dal Corso  v.6.3MaX
     Using radial grid of  929 points,  2 beta functions with: 
                l(1) =   0
                l(2) =   0
     Q(r) pseudized with 0 coefficients 


     atomic species   valence    mass     pseudopotential
        O              6.00    15.99940     O ( 1.00)
        H              1.00     1.00794     H ( 1.00)

      4 Sym. Ops. (no inversion) found



   Cartesian axes

     site n.     atom                  positions (alat units)
         1           O   tau(   1) = (   0.5000000   0.5000000   0.5000000  )
         2           H   tau(   2) = (   0.5504667   0.5000000   0.5391333  )
         3           H   tau(   3) = (   0.4495333   0.5000000   0.5391333  )

     number of k points=     1
                       cart. coord. in units 2pi/alat
        k(    1) = (   0.0000000   0.0000000   0.0000000), wk =   2.0000000

     Dense  grid:  2022145 G-vectors     FFT dimensions: ( 200, 200, 200)

     Smooth grid:   714818 G-vectors     FFT dimensions: ( 144, 144, 144)

     Estimated max dynamical RAM per process >       2.86 GB

     Initial potential from superposition of free atoms

     starting charge       8.0000, renormalised to       8.0000

     negative rho (up, down):  8.521E-04 0.000E+00
     Starting wfcs are    6 randomized atomic wfcs
     Checking if some PAW data can be deallocated... 

     total cpu time spent up to now is       29.0 secs

     Self-consistent Calculation

     iteration #  1     ecut=    60.00 Ry     beta= 0.30
     Davidson diagonalization with overlap
     ethr =  1.00E-02,  avg # of iterations =  2.0

     negative rho (up, down):  1.189E-03 0.000E+00

     total cpu time spent up to now is       44.4 secs

     total energy              =     -43.97906381 Ry
     estimated scf accuracy    <       0.48925269 Ry

     iteration #  2     ecut=    60.00 Ry     beta= 0.30
     Davidson diagonalization with overlap
     ethr =  6.12E-03,  avg # of iterations =  2.0

     negative rho (up, down):  1.350E-03 0.000E+00

     total cpu time spent up to now is       58.7 secs

     total energy              =     -44.03384454 Ry
     estimated scf accuracy    <       0.04730917 Ry

     iteration #  3     ecut=    60.00 Ry     beta= 0.30
     Davidson diagonalization with overlap
     ethr =  5.91E-04,  avg # of iterations =  2.0

     negative rho (up, down):  1.560E-03 0.000E+00

     total cpu time spent up to now is       71.6 secs

     total energy              =     -44.03855191 Ry
     estimated scf accuracy    <       0.01527346 Ry

     iteration #  4     ecut=    60.00 Ry     beta= 0.30
     Davidson diagonalization with overlap
     ethr =  1.91E-04,  avg # of iterations =  2.0

     negative rho (up, down):  1.598E-03 0.000E+00

     total cpu time spent up to now is       84.9 secs

     total energy              =     -44.03827676 Ry
     estimated scf accuracy    <       0.00654732 Ry

     iteration #  5     ecut=    60.00 Ry     beta= 0.30
     Davidson diagonalization with overlap
     ethr =  8.18E-05,  avg # of iterations =  2.0

     negative rho (up, down):  1.587E-03 0.000E+00

     total cpu time spent up to now is      101.6 secs

     total energy              =     -44.03958493 Ry
     estimated scf accuracy    <       0.00006276 Ry

     iteration #  6     ecut=    60.00 Ry     beta= 0.30
     Davidson diagonalization with overlap
     ethr =  7.84E-07,  avg # of iterations =  3.0

     negative rho (up, down):  1.574E-03 0.000E+00

     total cpu time spent up to now is      117.3 secs

     total energy              =     -44.03956654 Ry
     estimated scf accuracy    <       0.00011246 Ry

     iteration #  7     ecut=    60.00 Ry     beta= 0.30
     Davidson diagonalization with overlap
     ethr =  7.84E-07,  avg # of iterations =  2.0

     negative rho (up, down):  1.577E-03 0.000E+00

     total cpu time spent up to now is      130.0 secs

     total energy              =     -44.03960363 Ry
     estimated scf accuracy    <       0.00001338 Ry

     iteration #  8     ecut=    60.00 Ry     beta= 0.30
     Davidson diagonalization with overlap
     ethr =  1.67E-07,  avg # of iterations =  1.0

     negative rho (up, down):  1.583E-03 0.000E+00

     total cpu time spent up to now is      142.4 secs

     total energy              =     -44.03959873 Ry
     estimated scf accuracy    <       0.00000996 Ry

     iteration #  9     ecut=    60.00 Ry     beta= 0.30
     Davidson diagonalization with overlap
     ethr =  1.25E-07,  avg # of iterations =  2.0

     negative rho (up, down):  1.587E-03 0.000E+00

     total cpu time spent up to now is      154.6 secs

     total energy              =     -44.03960045 Ry
     estimated scf accuracy    <       0.00000019 Ry

     iteration # 10     ecut=    60.00 Ry     beta= 0.30
     Davidson diagonalization with overlap
     ethr =  2.33E-09,  avg # of iterations =  3.0

     negative rho (up, down):  1.590E-03 0.000E+00

     total cpu time spent up to now is      168.0 secs

     total energy              =     -44.03960058 Ry
     estimated scf accuracy    <       0.00000006 Ry

     iteration # 11     ecut=    60.00 Ry     beta= 0.30
     Davidson diagonalization with overlap
     ethr =  7.67E-10,  avg # of iterations =  1.0

     negative rho (up, down):  1.592E-03 0.000E+00

     total cpu time spent up to now is      175.2 secs

     total energy              =     -44.03960058 Ry
     estimated scf accuracy    <       0.00000001 Ry

     iteration # 12     ecut=    60.00 Ry     beta= 0.30
     Davidson diagonalization with overlap
     ethr =  1.83E-10,  avg # of iterations =  2.0

     negative rho (up, down):  1.597E-03 0.000E+00

     total cpu time spent up to now is      183.5 secs

     End of self-consistent calculation

          k = 0.0000 0.0000 0.0000 ( 89463 PWs)   bands (ev):

   -25.4259 -13.2082  -9.3265  -7.2503

     highest occupied level (ev):    -7.2503

!    total energy              =     -44.03960060 Ry
     estimated scf accuracy    <          5.7E-10 Ry

     The total energy is the sum of the following terms:
     one-electron contribution =     -82.34789695 Ry
     hartree contribution      =      42.71527167 Ry
     xc contribution           =      -8.85626869 Ry
     ewald contribution        =      13.95714892 Ry
     one-center paw contrib.   =      -9.50785556 Ry

     convergence has been achieved in  12 iterations

     negative rho (up, down):  1.597E-03 0.000E+00

     Forces acting on atoms (cartesian axes, Ry/au):

     atom    1 type  1   force =     0.00000000    0.00000000   -0.02736951
     atom    2 type  2   force =     0.01965837    0.00000000    0.01368476
     atom    3 type  2   force =    -0.01965837    0.00000000    0.01368476

     Total force =     0.043549     Total SCF correction =     0.000011

     BFGS Geometry Optimization
     Energy error            =      0.0E+00 Ry
     Gradient error          =      2.7E-02 Ry/Bohr

     number of scf cycles    =   1
     number of bfgs steps    =   0

     energy             new  =     -44.0396005971 Ry

     new trust radius        =       0.0273695143 bohr
     new conv_thr            =       0.0000000100 Ry


ATOMIC_POSITIONS (angstrom)
O             7.5000000000        7.5000000000        7.4855166768
H             8.2674027596        7.5000000000        8.0942416616
H             6.7325972404        7.5000000000        8.0942416616



     Writing config-only to output data dir ./tmp/h2o.save/
     NEW-OLD atomic charge density approx. for the potential

     negative rho (up, down):  1.576E-03 0.000E+00

     total cpu time spent up to now is      187.7 secs

     Self-consistent Calculation

     iteration #  1     ecut=    60.00 Ry     beta= 0.30
     Davidson diagonalization with overlap
     ethr =  1.00E-06,  avg # of iterations =  5.0

     negative rho (up, down):  1.562E-03 0.000E+00

     total cpu time spent up to now is      200.2 secs

     total energy              =     -44.03973097 Ry
     estimated scf accuracy    <       0.00097902 Ry

     iteration #  2     ecut=    60.00 Ry     beta= 0.30
     Davidson diagonalization with overlap
     ethr =  1.22E-05,  avg # of iterations =  2.0

     negative rho (up, down):  1.559E-03 0.000E+00

     total cpu time spent up to now is      210.9 secs

     total energy              =     -44.03980453 Ry
     estimated scf accuracy    <       0.00010835 Ry

     iteration #  3     ecut=    60.00 Ry     beta= 0.30
     Davidson diagonalization with overlap
     ethr =  1.35E-06,  avg # of iterations =  2.0

     negative rho (up, down):  1.564E-03 0.000E+00

     total cpu time spent up to now is      222.1 secs

     total energy              =     -44.03980977 Ry
     estimated scf accuracy    <       0.00002377 Ry

     iteration #  4     ecut=    60.00 Ry     beta= 0.30
     Davidson diagonalization with overlap
     ethr =  2.97E-07,  avg # of iterations =  2.0

     negative rho (up, down):  1.563E-03 0.000E+00

     total cpu time spent up to now is      231.4 secs

     total energy              =     -44.03981306 Ry
     estimated scf accuracy    <       0.00000651 Ry

     iteration #  5     ecut=    60.00 Ry     beta= 0.30
     Davidson diagonalization with overlap
     ethr =  8.14E-08,  avg # of iterations =  2.0

     negative rho (up, down):  1.565E-03 0.000E+00

     total cpu time spent up to now is      241.8 secs

     total energy              =     -44.03981429 Ry
     estimated scf accuracy    <       0.00000044 Ry

     iteration #  6     ecut=    60.00 Ry     beta= 0.30
     Davidson diagonalization with overlap
     ethr =  5.46E-09,  avg # of iterations =  2.0

     negative rho (up, down):  1.565E-03 0.000E+00

     total cpu time spent up to now is      251.5 secs

     total energy              =     -44.03981421 Ry
     estimated scf accuracy    <       0.00000036 Ry

     iteration #  7     ecut=    60.00 Ry     beta= 0.30
     Davidson diagonalization with overlap
     ethr =  4.49E-09,  avg # of iterations =  2.0

     negative rho (up, down):  1.565E-03 0.000E+00

     total cpu time spent up to now is      259.3 secs

     End of self-consistent calculation

          k = 0.0000 0.0000 0.0000 ( 89463 PWs)   bands (ev):

   -25.2067 -12.9478  -9.3565  -7.2097

     highest occupied level (ev):    -7.2097

!    total energy              =     -44.03981427 Ry
     estimated scf accuracy    <          8.6E-09 Ry

     The total energy is the sum of the following terms:
     one-electron contribution =     -81.84569056 Ry
     hartree contribution      =      42.47757982 Ry
     xc contribution           =      -8.81646404 Ry
     ewald contribution        =      13.65540432 Ry
     one-center paw contrib.   =      -9.51064382 Ry

     convergence has been achieved in   7 iterations

     negative rho (up, down):  1.565E-03 0.000E+00

     Forces acting on atoms (cartesian axes, Ry/au):

     atom    1 type  1   force =     0.00000000    0.00000000    0.02318495
     atom    2 type  2   force =    -0.01126578    0.00000000   -0.01159247
     atom    3 type  2   force =     0.01126578    0.00000000   -0.01159247

     Total force =     0.032560     Total SCF correction =     0.000153
     Energy error            =      2.1E-04 Ry
     Gradient error          =      2.3E-02 Ry/Bohr

     number of scf cycles    =   2
     number of bfgs steps    =   1

     energy             old  =     -44.0396005971 Ry
     energy             new  =     -44.0398142733 Ry

     CASE: energy            _new < energy            _old

     new trust radius        =       0.0131949878 bohr
     new conv_thr            =       0.0000000002 Ry


ATOMIC_POSITIONS (angstrom)
O             7.5000000000        7.5000000000        7.4924991636
H             8.2640301654        7.5000000000        8.0907504182
H             6.7359698346        7.5000000000        8.0907504182



     Writing config-only to output data dir ./tmp/h2o.save/
     NEW-OLD atomic charge density approx. for the potential

     negative rho (up, down):  1.559E-03 0.000E+00

     total cpu time spent up to now is      270.5 secs

     Self-consistent Calculation

     iteration #  1     ecut=    60.00 Ry     beta= 0.30
     Davidson diagonalization with overlap
     ethr =  1.00E-06,  avg # of iterations =  4.0

     negative rho (up, down):  1.568E-03 0.000E+00

     total cpu time spent up to now is      282.6 secs

     total energy              =     -44.04011554 Ry
     estimated scf accuracy    <       0.00017929 Ry

     iteration #  2     ecut=    60.00 Ry     beta= 0.30
     Davidson diagonalization with overlap
     ethr =  2.24E-06,  avg # of iterations =  2.0

     negative rho (up, down):  1.572E-03 0.000E+00

     total cpu time spent up to now is      290.9 secs

     total energy              =     -44.04013077 Ry
     estimated scf accuracy    <       0.00001974 Ry

     iteration #  3     ecut=    60.00 Ry     beta= 0.30
     Davidson diagonalization with overlap
     ethr =  2.47E-07,  avg # of iterations =  2.0

     negative rho (up, down):  1.573E-03 0.000E+00

     total cpu time spent up to now is      298.0 secs

     total energy              =     -44.04013235 Ry
     estimated scf accuracy    <       0.00000465 Ry

     iteration #  4     ecut=    60.00 Ry     beta= 0.30
     Davidson diagonalization with overlap
     ethr =  5.81E-08,  avg # of iterations =  2.0

     negative rho (up, down):  1.575E-03 0.000E+00

     total cpu time spent up to now is      308.8 secs

     total energy              =     -44.04013294 Ry
     estimated scf accuracy    <       0.00000126 Ry

     iteration #  5     ecut=    60.00 Ry     beta= 0.30
     Davidson diagonalization with overlap
     ethr =  1.57E-08,  avg # of iterations =  2.0

     negative rho (up, down):  1.576E-03 0.000E+00

     total cpu time spent up to now is      319.5 secs

     total energy              =     -44.04013323 Ry
     estimated scf accuracy    <       0.00000009 Ry

     iteration #  6     ecut=    60.00 Ry     beta= 0.30
     Davidson diagonalization with overlap
     ethr =  1.13E-09,  avg # of iterations =  2.0

     negative rho (up, down):  1.576E-03 0.000E+00

     total cpu time spent up to now is      327.7 secs

     total energy              =     -44.04013320 Ry
     estimated scf accuracy    <       0.00000010 Ry

     iteration #  7     ecut=    60.00 Ry     beta= 0.30
     Davidson diagonalization with overlap
     ethr =  1.13E-09,  avg # of iterations =  2.0

     negative rho (up, down):  1.577E-03 0.000E+00

     total cpu time spent up to now is      337.3 secs

     total energy              =     -44.04013321 Ry
     estimated scf accuracy    <          1.5E-09 Ry

     iteration #  8     ecut=    60.00 Ry     beta= 0.30
     Davidson diagonalization with overlap
     ethr =  1.92E-11,  avg # of iterations =  3.0

     negative rho (up, down):  1.579E-03 0.000E+00

     total cpu time spent up to now is      347.6 secs

     End of self-consistent calculation

          k = 0.0000 0.0000 0.0000 ( 89463 PWs)   bands (ev):

   -25.2945 -13.0656  -9.3340  -7.2255

     highest occupied level (ev):    -7.2255

!    total energy              =     -44.04013320 Ry
     estimated scf accuracy    <          1.7E-10 Ry

     The total energy is the sum of the following terms:
     one-electron contribution =     -82.05488196 Ry
     hartree contribution      =      42.57667616 Ry
     xc contribution           =      -8.83299540 Ry
     ewald contribution        =      13.78046543 Ry
     one-center paw contrib.   =      -9.50939744 Ry

     convergence has been achieved in   8 iterations

     negative rho (up, down):  1.579E-03 0.000E+00

     Forces acting on atoms (cartesian axes, Ry/au):

     atom    1 type  1   force =     0.00000000    0.00000000    0.00195915
     atom    2 type  2   force =     0.00065546    0.00000000   -0.00097957
     atom    3 type  2   force =    -0.00065546    0.00000000   -0.00097957

     Total force =     0.002572     Total SCF correction =     0.000035
     Energy error            =      3.2E-04 Ry
     Gradient error          =      2.0E-03 Ry/Bohr

     number of scf cycles    =   3
     number of bfgs steps    =   2

     energy             old  =     -44.0398142733 Ry
     energy             new  =     -44.0401332036 Ry

     CASE: energy            _new < energy            _old

     new trust radius        =       0.0016443065 bohr
     new conv_thr            =       0.0000000003 Ry


ATOMIC_POSITIONS (angstrom)
O             7.5000000000        7.5000000000        7.4933692932
H             8.2645169193        7.5000000000        8.0903153534
H             6.7354830807        7.5000000000        8.0903153534



     Writing config-only to output data dir ./tmp/h2o.save/
     NEW-OLD atomic charge density approx. for the potential

     negative rho (up, down):  1.578E-03 0.000E+00

     total cpu time spent up to now is      353.9 secs

     Self-consistent Calculation

     iteration #  1     ecut=    60.00 Ry     beta= 0.30
     Davidson diagonalization with overlap
     ethr =  1.00E-06,  avg # of iterations =  2.0

     Threshold (ethr) on eigenvalues was too large:
     Diagonalizing with lowered threshold

     Davidson diagonalization with overlap
     ethr =  8.41E-09,  avg # of iterations =  2.0

     negative rho (up, down):  1.578E-03 0.000E+00

     total cpu time spent up to now is      373.8 secs

     total energy              =     -44.04013765 Ry
     estimated scf accuracy    <       0.00000065 Ry

     iteration #  2     ecut=    60.00 Ry     beta= 0.30
     Davidson diagonalization with overlap
     ethr =  8.09E-09,  avg # of iterations =  2.0

     negative rho (up, down):  1.579E-03 0.000E+00

     total cpu time spent up to now is      383.0 secs

     total energy              =     -44.04013770 Ry
     estimated scf accuracy    <       0.00000013 Ry

     iteration #  3     ecut=    60.00 Ry     beta= 0.30
     Davidson diagonalization with overlap
     ethr =  1.67E-09,  avg # of iterations =  1.0

     negative rho (up, down):  1.579E-03 0.000E+00

     total cpu time spent up to now is      391.7 secs

     total energy              =     -44.04013770 Ry
     estimated scf accuracy    <       0.00000004 Ry

     iteration #  4     ecut=    60.00 Ry     beta= 0.30
     Davidson diagonalization with overlap
     ethr =  4.39E-10,  avg # of iterations =  2.0

     negative rho (up, down):  1.579E-03 0.000E+00

     total cpu time spent up to now is      401.7 secs

     total energy              =     -44.04013771 Ry
     estimated scf accuracy    <          2.0E-09 Ry

     iteration #  5     ecut=    60.00 Ry     beta= 0.30
     Davidson diagonalization with overlap
     ethr =  2.53E-11,  avg # of iterations =  2.0

     negative rho (up, down):  1.580E-03 0.000E+00

     total cpu time spent up to now is      412.7 secs

     total energy              =     -44.04013771 Ry
     estimated scf accuracy    <          4.8E-10 Ry

     iteration #  6     ecut=    60.00 Ry     beta= 0.30
     Davidson diagonalization with overlap
     ethr =  6.00E-12,  avg # of iterations =  2.0

     negative rho (up, down):  1.580E-03 0.000E+00

     total cpu time spent up to now is      422.6 secs

     End of self-consistent calculation

          k = 0.0000 0.0000 0.0000 ( 89463 PWs)   bands (ev):

   -25.2962 -13.0770  -9.3268  -7.2256

     highest occupied level (ev):    -7.2256

!    total energy              =     -44.04013770 Ry
     estimated scf accuracy    <          6.2E-11 Ry

     The total energy is the sum of the following terms:
     one-electron contribution =     -82.06390621 Ry
     hartree contribution      =      42.58109152 Ry
     xc contribution           =      -8.83373003 Ry
     ewald contribution        =      13.78569847 Ry
     one-center paw contrib.   =      -9.50929144 Ry

     convergence has been achieved in   6 iterations

     negative rho (up, down):  1.580E-03 0.000E+00

     Forces acting on atoms (cartesian axes, Ry/au):

     atom    1 type  1   force =     0.00000000    0.00000000    0.00054366
     atom    2 type  2   force =     0.00089505    0.00000000   -0.00027183
     atom    3 type  2   force =    -0.00089505    0.00000000   -0.00027183

     Total force =     0.001430     Total SCF correction =     0.000013
     Energy error            =      4.5E-06 Ry
     Gradient error          =      9.0E-04 Ry/Bohr

     number of scf cycles    =   4
     number of bfgs steps    =   3

     energy             old  =     -44.0401332036 Ry
     energy             new  =     -44.0401377043 Ry

     CASE: energy            _new < energy            _old

     new trust radius        =       0.0022713124 bohr
     new conv_thr            =            1.0E-10 Ry


ATOMIC_POSITIONS (angstrom)
O             7.5000000000        7.5000000000        7.4943609847
H             8.2656118006        7.5000000000        8.0898195076
H             6.7343881994        7.5000000000        8.0898195076



     Writing config-only to output data dir ./tmp/h2o.save/
     NEW-OLD atomic charge density approx. for the potential

     negative rho (up, down):  1.578E-03 0.000E+00

     total cpu time spent up to now is      426.8 secs

     Self-consistent Calculation

     iteration #  1     ecut=    60.00 Ry     beta= 0.30
     Davidson diagonalization with overlap
     ethr =  1.00E-06,  avg # of iterations =  2.0

     Threshold (ethr) on eigenvalues was too large:
     Diagonalizing with lowered threshold

     Davidson diagonalization with overlap
     ethr =  5.61E-09,  avg # of iterations =  3.0

     negative rho (up, down):  1.579E-03 0.000E+00

     total cpu time spent up to now is      451.3 secs

     total energy              =     -44.04014073 Ry
     estimated scf accuracy    <       0.00000043 Ry

     iteration #  2     ecut=    60.00 Ry     beta= 0.30
     Davidson diagonalization with overlap
     ethr =  5.40E-09,  avg # of iterations =  1.0

     negative rho (up, down):  1.579E-03 0.000E+00

     total cpu time spent up to now is      457.3 secs

     total energy              =     -44.04014073 Ry
     estimated scf accuracy    <       0.00000019 Ry

     iteration #  3     ecut=    60.00 Ry     beta= 0.30
     Davidson diagonalization with overlap
     ethr =  2.32E-09,  avg # of iterations =  1.0

     negative rho (up, down):  1.580E-03 0.000E+00

     total cpu time spent up to now is      466.9 secs

     total energy              =     -44.04014075 Ry
     estimated scf accuracy    <       0.00000001 Ry

     iteration #  4     ecut=    60.00 Ry     beta= 0.30
     Davidson diagonalization with overlap
     ethr =  1.49E-10,  avg # of iterations =  2.0

     negative rho (up, down):  1.580E-03 0.000E+00

     total cpu time spent up to now is      477.1 secs

     total energy              =     -44.04014075 Ry
     estimated scf accuracy    <          1.3E-09 Ry

     iteration #  5     ecut=    60.00 Ry     beta= 0.30
     Davidson diagonalization with overlap
     ethr =  1.69E-11,  avg # of iterations =  2.0

     negative rho (up, down):  1.580E-03 0.000E+00

     total cpu time spent up to now is      484.7 secs

     total energy              =     -44.04014075 Ry
     estimated scf accuracy    <          1.5E-10 Ry

     iteration #  6     ecut=    60.00 Ry     beta= 0.30
     Davidson diagonalization with overlap
     ethr =  1.93E-12,  avg # of iterations =  1.0

     negative rho (up, down):  1.580E-03 0.000E+00

     total cpu time spent up to now is      491.0 secs

     End of self-consistent calculation

          k = 0.0000 0.0000 0.0000 ( 89463 PWs)   bands (ev):

   -25.2927 -13.0880  -9.3160  -7.2247

     highest occupied level (ev):    -7.2247

!    total energy              =     -44.04014074 Ry
     estimated scf accuracy    <          1.5E-11 Ry

     The total energy is the sum of the following terms:
     one-electron contribution =     -82.06397141 Ry
     hartree contribution      =      42.58141639 Ry
     xc contribution           =      -8.83377910 Ry
     ewald contribution        =      13.78539364 Ry
     one-center paw contrib.   =      -9.50920026 Ry

     convergence has been achieved in   6 iterations

     negative rho (up, down):  1.580E-03 0.000E+00

     Forces acting on atoms (cartesian axes, Ry/au):

     atom    1 type  1   force =     0.00000000    0.00000000   -0.00027672
     atom    2 type  2   force =     0.00039013    0.00000000    0.00013836
     atom    3 type  2   force =    -0.00039013    0.00000000    0.00013836

     Total force =     0.000648     Total SCF correction =     0.000008
     Energy error            =      3.0E-06 Ry
     Gradient error          =      3.9E-04 Ry/Bohr

     number of scf cycles    =   5
     number of bfgs steps    =   4

     energy             old  =     -44.0401377043 Ry
     energy             new  =     -44.0401407450 Ry

     CASE: energy            _new < energy            _old

     new trust radius        =       0.0005868690 bohr
     new conv_thr            =            1.0E-10 Ry


ATOMIC_POSITIONS (angstrom)
O             7.5000000000        7.5000000000        7.4944697861
H             8.2659175565        7.5000000000        8.0897651069
H             6.7340824435        7.5000000000        8.0897651069



     Writing config-only to output data dir ./tmp/h2o.save/
     NEW-OLD atomic charge density approx. for the potential

     negative rho (up, down):  1.580E-03 0.000E+00

     total cpu time spent up to now is      494.9 secs

     Self-consistent Calculation

     iteration #  1     ecut=    60.00 Ry     beta= 0.30
     Davidson diagonalization with overlap
     ethr =  1.00E-06,  avg # of iterations =  2.0

     Threshold (ethr) on eigenvalues was too large:
     Diagonalizing with lowered threshold

     Davidson diagonalization with overlap
     ethr =  4.27E-10,  avg # of iterations =  4.0

     negative rho (up, down):  1.580E-03 0.000E+00

     total cpu time spent up to now is      513.3 secs

     total energy              =     -44.04014095 Ry
     estimated scf accuracy    <       0.00000005 Ry

     iteration #  2     ecut=    60.00 Ry     beta= 0.30
     Davidson diagonalization with overlap
     ethr =  6.32E-10,  avg # of iterations =  1.0

     negative rho (up, down):  1.580E-03 0.000E+00

     total cpu time spent up to now is      522.0 secs

     total energy              =     -44.04014096 Ry
     estimated scf accuracy    <       0.00000001 Ry

     iteration #  3     ecut=    60.00 Ry     beta= 0.30
     Davidson diagonalization with overlap
     ethr =  1.42E-10,  avg # of iterations =  2.0

     negative rho (up, down):  1.580E-03 0.000E+00

     total cpu time spent up to now is      532.0 secs

     total energy              =     -44.04014096 Ry
     estimated scf accuracy    <          3.4E-09 Ry

     iteration #  4     ecut=    60.00 Ry     beta= 0.30
     Davidson diagonalization with overlap
     ethr =  4.31E-11,  avg # of iterations =  2.0

     negative rho (up, down):  1.580E-03 0.000E+00

     total cpu time spent up to now is      540.9 secs

     total energy              =     -44.04014096 Ry
     estimated scf accuracy    <          1.8E-09 Ry

     iteration #  5     ecut=    60.00 Ry     beta= 0.30
     Davidson diagonalization with overlap
     ethr =  2.25E-11,  avg # of iterations =  2.0

     negative rho (up, down):  1.580E-03 0.000E+00

     total cpu time spent up to now is      549.8 secs

     End of self-consistent calculation

          k = 0.0000 0.0000 0.0000 ( 89463 PWs)   bands (ev):

   -25.2904 -13.0885  -9.3139  -7.2242

     highest occupied level (ev):    -7.2242

!    total energy              =     -44.04014096 Ry
     estimated scf accuracy    <          4.6E-11 Ry

     The total energy is the sum of the following terms:
     one-electron contribution =     -82.06041186 Ry
     hartree contribution      =      42.57975974 Ry
     xc contribution           =      -8.83349992 Ry
     ewald contribution        =      13.78321162 Ry
     one-center paw contrib.   =      -9.50920054 Ry

     convergence has been achieved in   5 iterations

     negative rho (up, down):  1.580E-03 0.000E+00

     Forces acting on atoms (cartesian axes, Ry/au):

     atom    1 type  1   force =     0.00000000    0.00000000   -0.00009853
     atom    2 type  2   force =     0.00006923    0.00000000    0.00004927
     atom    3 type  2   force =    -0.00006923    0.00000000    0.00004927

     Total force =     0.000155     Total SCF correction =     0.000015
     Energy error            =      2.1E-07 Ry
     Gradient error          =      9.9E-05 Ry/Bohr

     bfgs converged in   6 scf cycles and   5 bfgs steps
     (criteria: energy <  1.0E-04 Ry, force <  1.0E-04 Ry/Bohr)

     End of BFGS Geometry Optimization

     Final energy             =     -44.0401409572 Ry

     File ./tmp/h2o.bfgs deleted, as requested
Begin final coordinates

ATOMIC_POSITIONS (angstrom)
O             7.5000000000        7.5000000000        7.4944697861
H             8.2659175565        7.5000000000        8.0897651069
H             6.7340824435        7.5000000000        8.0897651069
End final coordinates



     Writing all to output data dir ./tmp/h2o.save/

     init_run     :     14.28s CPU     28.92s WALL (       1 calls)
     electrons    :    244.75s CPU    491.91s WALL (       6 calls)
     update_pot   :      9.49s CPU      7.47s WALL (       5 calls)
     forces       :     18.60s CPU     18.48s WALL (       6 calls)

     Called by init_run:
     wfcinit      :      3.01s CPU     10.09s WALL (       1 calls)
     potinit      :      4.31s CPU      8.06s WALL (       1 calls)
     hinit0       :      5.87s CPU      9.38s WALL (       1 calls)

     Called by electrons:
     c_bands      :     74.53s CPU    268.99s WALL (      47 calls)
     sum_band     :     67.68s CPU    112.68s WALL (      47 calls)
     v_of_rho     :     61.58s CPU     50.35s WALL (      50 calls)
     newd         :     29.47s CPU     49.12s WALL (      50 calls)
     PAW_pot      :      1.01s CPU      0.86s WALL (      55 calls)
     mix_rho      :      9.98s CPU      8.10s WALL (      47 calls)

     Called by c_bands:
     init_us_2    :      0.66s CPU      1.22s WALL (     100 calls)
     init_us_2:cp :      0.66s CPU      1.22s WALL (     100 calls)
     regterg      :     73.94s CPU    268.11s WALL (      47 calls)

     Called by *egterg:
     rdiaghg      :      0.03s CPU      0.16s WALL (     137 calls)
     h_psi        :     74.28s CPU    276.10s WALL (     146 calls)
     s_psi        :      0.37s CPU      0.11s WALL (     146 calls)
     g_psi        :      0.10s CPU      0.06s WALL (      98 calls)

     Called by h_psi:
     h_psi:calbec :      0.20s CPU      0.44s WALL (     146 calls)
     vloc_psi     :     73.70s CPU    275.40s WALL (     146 calls)
     add_vuspsi   :      0.32s CPU      0.16s WALL (     146 calls)

     General routines
     calbec       :      0.30s CPU      0.64s WALL (     222 calls)
     fft          :     60.23s CPU     22.43s WALL (     606 calls)
     ffts         :      5.67s CPU      7.74s WALL (      97 calls)
     fftw         :     82.94s CPU    313.50s WALL (     662 calls)
     interpolate  :      9.75s CPU     10.85s WALL (      50 calls)

     Parallel routines

     PWSCF        :   4m51.82s CPU   9m14.14s WALL


   This run was terminated on:  16:56:38   7Aug2026            

=------------------------------------------------------------------------------=
   JOB DONE.
=------------------------------------------------------------------------------=
